8
Lattice="5.4504 0.0 0.0 0.0 5.4504 0.0 0.0 0.0 5.4504" Properties=species:S:1:pos:R:3:momenta:R:3 time_fs=0.0 temperature_K=300.0000000000001 pbc="T T T"
Si       0.00000000       0.00000000       0.00000000       0.02002556      -0.15248147       0.86102025
Si       1.36260000       1.36260000       1.36260000      -0.17891388       0.97795914       1.04442787
Si       0.00000000       2.72520000       2.72520000      -0.21861087       1.67179471       0.86712523
Si       1.36260000       4.08780000       4.08780000      -1.15372342      -0.03832433      -0.88234083
Si       2.72520000       0.00000000       2.72520000       0.67374100      -0.03073151      -0.78440535
Si       4.08780000       1.36260000       4.08780000       0.75030077       0.31245433      -0.20338906
Si       2.72520000       2.72520000       0.00000000       1.20699627      -1.57042424      -0.13984422
Si       4.08780000       4.08780000       1.36260000      -1.09981542      -1.17024663      -0.76259388
8
Lattice="5.4504 0.0 0.0 0.0 5.4504 0.0 0.0 0.0 5.4504" Properties=species:S:1:pos:R:3:momenta:R:3 time_fs=2.5 temperature_K=292.99142091070047 pbc="T T T"
Si       0.00017602      -0.00132526       0.00752094       0.02035521      -0.14965226       0.85830268
Si       1.36103286       1.37113491       1.37172007      -0.17987238       0.97222781       1.04009424
Si      -0.00193020       2.73977351       2.73273839      -0.22542864       1.65594214       0.85149620
Si       1.35259554       4.08748417       4.08014783      -1.12398023      -0.03124804      -0.85994023
Si       2.73106801      -0.00026796       2.71836848       0.66553690      -0.03045371      -0.77475830
Si       4.09436685       1.36529318       4.08601577       0.75262728       0.29859213      -0.20550867
Si       2.73567372       2.71150813      -0.00125615       1.17852653      -1.55647419      -0.15162095
Si       4.07821720       4.07759932       1.35594467      -1.08776467      -1.15893388      -0.75806496
8
Lattice="5.4504 0.0 0.0 0.0 5.4504 0.0 0.0 0.0 5.4504" Properties=species:S:1:pos:R:3:momenta:R:3 time_fs=5.0 temperature_K=273.02260543547334 pbc="T T T"
Si       0.00035790      -0.00260240       0.01499402       0.02138341      -0.14159711       0.85005423
Si       1.35945032       1.37957063       1.38076425      -0.18232415       0.95537269       1.02706933
Si      -0.00398484       2.75406792       2.74000064      -0.24744408       1.60788763       0.80382674
Si       1.34310734       4.08730021       4.07288490      -1.03611798      -0.00756326      -0.79362523
Si       2.73679364      -0.00053064       2.71170350       0.64131546      -0.02949326      -0.74653769
Si       4.10097544       1.36774528       4.08419340       0.75990418       0.25749518      -0.21218056
Si       2.74565509       2.69805250      -0.00271055       1.09498548      -1.51707279      -0.18450163
Si       4.06884511       4.06759650       1.34936984      -1.05170231      -1.12502907      -0.74410520
8
Lattice="5.4504 0.0 0.0 0.0 5.4504 0.0 0.0 0.0 5.4504" Properties=species:S:1:pos:R:3:momenta:R:3 time_fs=7.5 temperature_K=243.0391807547846 pbc="T T T"
Si       0.00055266      -0.00378904       0.02237070       0.02341448      -0.12913562       0.83625904
Si       1.35784147       1.38781173       1.38965638      -0.18587471       0.92766915       1.00525099
Si      -0.00630343       2.76780210       2.74670601      -0.28581664       1.52798470       0.72432723
Si       1.33462852       4.08740569       4.06638542      -0.89400832       0.03529502      -0.68586686
Si       2.74224106      -0.00078127       2.70536125       0.60210513      -0.02764160      -0.70123458
Si       4.10766946       1.36972435       4.08229203       0.77208146       0.19078370      -0.22355886
Si       2.75468005       2.68503896      -0.00453058       0.96067340      -1.45599844      -0.23451714
Si       4.05989023       4.05798748       1.34295879      -0.99257482      -1.06895689      -0.72065982
8
Lattice="5.4504 0.0 0.0 0.0 5.4504 0.0 0.0 0.0 5.4504" Properties=species:S:1:pos:R:3:momenta:R:3 time_fs=10.0 temperature_K=207.3276166388439 pbc="T T T"
Si       0.00077296      -0.00485135       0.02960232       0.02742078      -0.11330684       0.81685613
Si       1.35619764       1.39576247       1.39831764      -0.19020886       0.88902488       0.97421565
Si      -0.00902554       2.78070420       2.75258399      -0.33932535       1.41805490       0.61516275
Si       1.32760838       4.08797356       4.06099579      -0.70374461       0.09808874      -0.54070790
Si       2.74728401      -0.00101063       2.69948410       0.54904334      -0.02460348      -0.64043976
Si       4.11448774       1.37101690       4.08027207       0.78799453       0.10096861      -0.23916328
Si       2.76232848       2.67264229      -0.00684807       0.78130399      -1.37653284      -0.29755935
Si       4.05154633       4.04896256       1.33679217      -0.91248383      -0.99169396      -0.68836424
8
Lattice="5.4504 0.0 0.0 0.0 5.4504 0.0 0.0 0.0 5.4504" Properties=species:S:1:pos:R:3:momenta:R:3 time_fs=12.5 temperature_K=171.0685796395259 pbc="T T T"
Si       0.00103989      -0.00576246       0.03664020       0.03418967      -0.09461852       0.79202307
Si       1.35451457       1.40332960       1.40666720      -0.19476135       0.84006652       0.93399823
Si      -0.01227103       2.79252657       2.75739332      -0.40478456       1.28187859       0.48095213
Si       1.32243362       4.08917095       4.05701687      -0.47361523       0.17861473      -0.36451439
Si       2.75180899      -0.00120787       2.69419931       0.48404465      -0.02026100      -0.56617886
Si       4.12145406       1.37143437       4.07810031       0.80552835      -0.00868647      -0.25808347
Si       2.76823820       2.66100961      -0.00975962       0.56451270      -1.28179864      -0.36972188
Si       4.04398171       4.04069923       1.33094241      -0.81511425      -0.89519521      -0.64847483
8
Lattice="5.4504 0.0 0.0 0.0 5.4504 0.0 0.0 0.0 5.4504" Properties=species:S:1:pos:R:3:momenta:R:3 time_fs=15.0 temperature_K=139.41436937098027 pbc="T T T"
Si       0.00138021      -0.00649917       0.04343915       0.04429056      -0.07349038       0.76232382
Si       1.35279247       1.41042651       1.41462612      -0.19908206       0.78159339       0.88493734
Si      -0.01612341       2.80306391       2.76094370      -0.47704821       1.12536776       0.32862949
Si       1.31940808       4.09113282       4.05468524      -0.21424577       0.27184106      -0.16554148
Si       2.75572249      -0.00136105       2.68961364       0.40969437      -0.01453159      -0.48101241
Si       4.12857194       1.37082167       4.07575358       0.82218873      -0.13379815      -0.27887373
Si       2.77212139       2.65026158      -0.01332898       0.31954239      -1.17466024      -0.44740794
Si       4.03732682       4.03335374       1.32546755      -0.70534004      -0.78232183      -0.60305510
8
Lattice="5.4504 0.0 0.0 0.0 5.4504 0.0 0.0 0.0 5.4504" Properties=species:S:1:pos:R:3:momenta:R:3 time_fs=17.5 temperature_K=116.43581252407319 pbc="T T T"
Si       0.00182477      -0.00704191       0.04995959       0.05809320      -0.05032775       0.72844481
Si       1.35103398       1.41697244       1.42211908      -0.20309553       0.71410578       0.82750514
Si      -0.02061332       2.81217057       2.76311427      -0.54923890       0.95608530       0.16707427
Si       1.31873412       4.09394079       4.05415894       0.06192340       0.37076467       0.04662210
Si       2.75895574      -0.00145824       2.68581014       0.32899550      -0.00745574      -0.38781171
Si       4.13582181       1.36906579       4.07322363       0.83518000      -0.26918718      -0.29961013
Si       2.77377625       2.64049562      -0.01758996       0.05674719      -1.05756729      -0.52735734
Si       4.03166665       4.02705494       1.32040431      -0.58860485      -0.65641777      -0.55486714
8
Lattice="5.4504 0.0 0.0 0.0 5.4504 0.0 0.0 0.0 5.4504" Properties=species:S:1:pos:R:3:momenta:R:3 time_fs=20.0 temperature_K=104.33696957630522 pbc="T T T"
Si       0.00240739      -0.00737494       0.05616816       0.07592653      -0.02561763       0.69112314
Si       1.34924190       1.42289056       1.42907490      -0.20672454       0.63811806       0.76215480
Si      -0.02570537       2.81977070       2.76386741      -0.61327553       0.78226776       0.00623454
Si       1.32050057       4.09761005       4.05550881       0.34152778       0.46736612       0.26174195
Si       2.76146639      -0.00148758       2.68284568       0.24493887       0.00099043      -0.28965024
Si       4.14315800       1.36610117       4.07052067       0.84133745      -0.40925281      -0.31801437
Si       2.77309443       2.63178952      -0.02254892      -0.21295232      -0.93257916      -0.60653585
Si       4.02703671       4.02190053       1.31576331      -0.47077821      -0.52129274      -0.50705398
8
Lattice="5.4504 0.0 0.0 0.0 5.4504 0.0 0.0 0.0 5.4504" Properties=species:S:1:pos:R:3:momenta:R:3 time_fs=22.5 temperature_K=103.15118814711906 pbc="T T T"
Si       0.00316472      -0.00748711       0.06203797       0.09811147       0.00009041       0.65108639
Si       1.34742077       1.42811018       1.43542648      -0.20969728       0.55451796       0.68941146
Si      -0.03129237       2.82586068       2.76325313      -0.66107336       0.61207531      -0.14398196
Si       1.32467876       4.10208474       4.05871589       0.61122951       0.55361424       0.46965894
Si       2.76323794      -0.00143730       2.68075033       0.16046860       0.01072695      -0.18954190
Si       4.15050632       1.36191205       4.06767571       0.83739567      -0.54823296      -0.33167111
Si       2.77006371       2.62420385      -0.02818668      -0.47856912      -0.80164902      -0.68214053
Si       4.02342014       4.01795291       1.31152718      -0.35786546      -0.38114290      -0.46282129
8
Lattice="5.4504 0.0 0.0 0.0 5.4504 0.0 0.0 0.0 5.4504" Properties=species:S:1:pos:R:3:momenta:R:3 time_fs=25.0 temperature_K=110.92575153905207 pbc="T T T"
Si       0.00413585      -0.00737219       0.06754818       0.12483750       0.02621389       0.60896286
Si       1.34557716       1.43256940       1.44111246      -0.21182015       0.46440519       0.61005746
Si      -0.03720086       2.83050468       2.76140439      -0.68571640       0.45264857      -0.27466052
Si       1.33112673       4.10724284       4.06367570       0.85859207       0.62260688       0.66110612
Si       2.76427940      -0.00129701       2.67952841       0.07842801       0.02153007      -0.09038262
Si       4.15776571       1.35653295       4.06473984       0.82052943      -0.68044312      -0.33845166
Si       2.76476684       2.61778151      -0.03446052      -0.72943163      -0.66687033      -0.75156483
Si       4.02074917       4.01523781       1.30765153      -0.25541881      -0.24009116      -0.42506681
8
Lattice="5.4504 0.0 0.0 0.0 5.4504 0.0 0.0 0.0 5.4504" Properties=species:S:1:pos:R:3:momenta:R:3 time_fs=27.5 temperature_K=124.30185711215755 pbc="T T T"
Si       0.00536031      -0.00702933       0.07268260       0.15602692       0.05210520       0.56519911
Si       1.34371996       1.43621698       1.44607864      -0.21273531       0.36913600       0.52493034
Si      -0.04320477       2.83382134       2.75852490      -0.68221470       0.30922481      -0.37866481
Si       1.33960049       4.11291047       4.07020891       1.07285949       0.66951767       0.82830854
Si       2.76462346      -0.00105865       2.67915915       0.00138131       0.03309722       0.00499214
Si       4.16481243       1.35004692       4.06178132       0.78837869      -0.80049521      -0.33659110
Si       2.75737706       2.61254627      -0.04130515      -0.95559839      -0.53058581      -0.81224447
Si       4.01891106       4.01374600       1.30406963      -0.16809800      -0.10199987      -0.39592974
8
Lattice="5.4504 0.0 0.0 0.0 5.4504 0.0 0.0 0.0 5.4504" Properties=species:S:1:pos:R:3:momenta:R:3 time_fs=30.0 temperature_K=139.36707068824313 pbc="T T T"
Si       0.00687600      -0.00646382       0.07742840       0.19136666       0.07698250       0.52012456
Si       1.34186137       1.43901476       1.45027889      -0.21208236       0.27034187       0.43507438
Si      -0.04904510       2.83596612       2.75487081      -0.64809750       0.18499036      -0.45121429
Si       1.34977184       4.11888282       4.07807600       1.24560908       0.69216625       0.96532179
Si       2.76432383      -0.00071714       2.67959770      -0.06843573       0.04504644       0.09393742
Si       4.17150491       1.34258195       4.05888090       0.73928197      -0.90355719      -0.32505566
Si       2.74814962       2.60849932      -0.04863312      -1.14831596      -0.39561032      -0.86166949
Si       4.01775753       4.01343599       1.30070041      -0.09932616       0.02964011      -0.37651870
8
Lattice="5.4504 0.0 0.0 0.0 5.4504 0.0 0.0 0.0 5.4504" Properties=species:S:1:pos:R:3:momenta:R:3 time_fs=32.5 temperature_K=152.4584374226034 pbc="T T T"
Si       0.00871690      -0.00568852       0.08177527       0.23029359       0.09992739       0.47397897
Si       1.34001635       1.44093993       1.45367735      -0.20958156       0.16989774       0.34178322
Si      -0.05445290       2.83711372       2.75072869      -0.58353500       0.08119635      -0.49012735
Si       1.36125016       4.12494772       4.08699437       1.37096665       0.69095850       1.06826374
Si       2.76345205      -0.00027123       2.68077707      -0.12920745       0.05687373       0.17402632
Si       4.17769136       1.33430539       4.05612446       0.67264866      -0.98541892      -0.30370777
Si       2.73740996       2.60561522      -0.05633491      -1.30035294      -0.26524358      -0.89728451
Si       4.01711611       4.01423778       1.29745770      -0.05123194       0.15180882      -0.36693261
8
Lattice="5.4504 0.0 0.0 0.0 5.4504 0.0 0.0 0.0 5.4504" Properties=species:S:1:pos:R:3:momenta:R:3 time_fs=35.0 temperature_K=160.71909795889997 pbc="T T T"
Si       0.01091096      -0.00472416       0.08571424       0.27196709       0.12008733       0.42680991
Si       1.33820231       1.44198705       1.45625023      -0.20493622       0.06989471       0.24650328
Si      -0.05917135       2.83744222       2.74639350      -0.49106519      -0.00256271      -0.49560732
Si       1.37360364       4.13090590       4.09665630       1.44533178       0.66836969       1.13519279
Si       2.76209338       0.00027536       2.68261003      -0.17961801       0.06795651       0.24306691
Si       4.18322068       1.32541912       4.05359569       0.58920410      -1.04243367      -0.27313902
Si       2.72553905       2.60383734      -0.06427839      -1.40626168      -0.14331117      -0.91648209
Si       4.01680133       4.01605717       1.29425840      -0.02462184       0.26199935      -0.36634446
8
Lattice="5.4504 0.0 0.0 0.0 5.4504 0.0 0.0 0.0 5.4504" Properties=species:S:1:pos:R:3:momenta:R:3 time_fs=37.5 temperature_K=162.39255538190068 pbc="T T T"
Si       0.01347738      -0.00359840       0.08923578       0.31521811       0.13670396       0.37845194
Si       1.33643957       1.44216984       1.45798692      -0.19777715      -0.02736950       0.15082622
Si      -0.06297458       2.83712069       2.74214925      -0.37513325      -0.06783576      -0.46988558
Si       1.38637831       4.13658762       4.10674352       1.46721917       0.62859947       1.16551942
Si       2.76034214       0.00091309       2.68499144      -0.21891680       0.07758607       0.29916683
Si       4.18795270       1.31615316       4.05137057       0.49066065      -1.07187273      -0.23450159
Si       2.71295730       2.60307356      -0.07230869      -1.46246611      -0.03406702      -0.91669723
Si       4.01662718       4.01878044       1.29103122      -0.01880459       0.35825553      -0.37288000
8
Lattice="5.4504 0.0 0.0 0.0 5.4504 0.0 0.0 0.0 5.4504" Properties=species:S:1:pos:R:3:momenta:R:3 time_fs=40.0 temperature_K=156.85557321328537 pbc="T T T"
Si       0.01642331      -0.00234596       0.09232808       0.35846294       0.14887959       0.32855053
Si       1.33475188       1.44152303       1.45889179      -0.18769320      -0.11941650       0.05658344
Si      -0.06568187       2.83630181       2.73825322      -0.24149629      -0.11672059      -0.41674537
Si       1.39911501       4.14186509       4.11693589       1.43678879       0.57690126       1.15928424
Si       2.75829671       0.00162613       2.68780143      -0.24693347       0.08507225       0.34090201
Si       4.19176574       1.30675678       4.04951322       0.37951119      -1.07205414      -0.18930371
Si       2.70010851       2.60319419      -0.08024958      -1.46719266       0.05825027      -0.89567247
Si       4.01642071       4.02227895       1.28772594      -0.03144727       0.43908791      -0.38359866
8
Lattice="5.4504 0.0 0.0 0.0 5.4504 0.0 0.0 0.0 5.4504" Properties=species:S:1:pos:R:3:momenta:R:3 time_fs=42.5 temperature_K=144.54091544619078 pbc="T T T"
Si       0.01974084      -0.00100997       0.09497567       0.39986121       0.15566363       0.27664143
Si       1.33316665       1.44010288       1.45898586      -0.17426868      -0.20385863      -0.03429396
Si      -0.06716611       2.83511928       2.73492484      -0.09656585      -0.15139599      -0.34097139
Si       1.41136187       4.14665836       4.12691577       1.35558942       0.51882069       1.11712022
Si       2.75605444       0.00239311       2.69091030      -0.26405886       0.08981800       0.36741519
Si       4.19456292       1.29748969       4.04807407       0.25893852      -1.04223408      -0.13912454
Si       2.68744383       2.60403405      -0.08790746      -1.42052401       0.12981911      -0.85170533
Si       4.01603556       4.02641261       1.28432095      -0.05897173       0.50336730      -0.39508160
8
Lattice="5.4504 0.0 0.0 0.0 5.4504 0.0 0.0 0.0 5.4504" Properties=species:S:1:pos:R:3:momenta:R:3 time_fs=45.0 temperature_K=126.79008355277342 pbc="T T T"
Si       0.02340477       0.00035862       0.09715884       0.43727182       0.15617584       0.22223381
Si       1.33171479       1.43798498       1.45830650      -0.15711664      -0.27869333      -0.12001942
Si      -0.06735756       2.83368844       2.73233871       0.05301928      -0.17385400      -0.24797745
Si       1.42268670       4.15093413       4.13637545       1.22653050       0.45936097       1.04066052
Si       2.75370704       0.00318760       2.69418285      -0.27117612       0.09126897       0.37832434
Si       4.19627848       1.28861492       4.04708996       0.13284188      -0.98239074      -0.08548068
Si       2.67540631       2.60539834      -0.09507642      -1.32418798       0.17784185      -0.78373538
Si       4.01535947       4.03103297       1.28082411      -0.09718272       0.55029048      -0.40400573
8
Lattice="5.4504 0.0 0.0 0.0 5.4504 0.0 0.0 0.0 5.4504" Properties=species:S:1:pos:R:3:momenta:R:3 time_fs=47.5 temperature_K=105.65967884741917 pbc="T T T"
Si       0.02736916       0.00170160       0.09885365       0.46807634       0.14971671       0.16485720
Si       1.33043057       1.43526075       1.45690613      -0.13586095      -0.34228206      -0.19891934
Si      -0.06624385       2.83210833       2.73062075       0.20087630      -0.18582864      -0.14339810
Si       1.43268905       4.15469909       4.14502477       1.05404102       0.40257947       0.93225955
Si       2.75133673       0.00397851       2.69748309      -0.26955505       0.08892055       0.37383063
Si       4.19688173       1.28039154       4.04658495       0.00522561      -0.89349821      -0.02979594
Si       2.66441716       2.60707468      -0.10154590      -1.18145815       0.20114051      -0.69183122
Si       4.01431945       4.03598551       1.27727256      -0.14134511       0.57925171      -0.40700278
8
Lattice="5.4504 0.0 0.0 0.0 5.4504 0.0 0.0 0.0 5.4504" Properties=species:S:1:pos:R:3:momenta:R:3 time_fs=50.0 temperature_K=83.70153082010307 pbc="T T T"
Si       0.03156359       0.00295643       0.10003247       0.48936303       0.13600096       0.10416272
Si       1.32935127       1.43203464       1.45485154      -0.11019688      -0.39327072      -0.26937675
Si      -0.06386548       2.83046379       2.72984816       0.34136234      -0.18885827      -0.03268335
Si       1.44101480       4.15798874       4.15259788       0.84429892       0.35091049       0.79515303
Si       2.74901347       0.00473118       2.70067881      -0.26070074       0.08250623       0.35456272
Si       4.19637636       1.27306583       4.04657087      -0.12008051      -0.77752351       0.02661204
Si       2.65486161       2.60884808      -0.10711144      -0.99734752       0.20032144      -0.57734372
Si       4.01288439       4.04111132       1.27373170      -0.18669861       0.58991342      -0.40108670
8
Lattice="5.4504 0.0 0.0 0.0 5.4504 0.0 0.0 0.0 5.4504" Properties=species:S:1:pos:R:3:momenta:R:3 time_fs=52.5 temperature_K=63.66182263145587 pbc="T T T"
Si       0.03589213       0.00406001       0.10066551       0.49824458       0.11519308       0.04001945
Si       1.32851648       1.42842158       1.45222332      -0.07990161      -0.43065375      -0.32987481
Si      -0.06030820       2.82882664       2.73005208       0.46976421      -0.18439716       0.07907177
Si       1.44737070       4.16085122       4.15886101       0.60494471       0.30473051       0.63344231
Si       2.74679347       0.00541017       2.70364499      -0.24622805       0.07211203       0.32155292
Si       4.19479831       1.26686218       4.04704952      -0.23949892      -0.63743500       0.08273952
Si       2.64707306       2.61051727      -0.11158642      -0.77863921       0.17795320      -0.44298244
Si       4.01106404       4.04625093       1.27029000      -0.22868569       0.58249712      -0.38396872
8
Lattice="5.4504 0.0 0.0 0.0 5.4504 0.0 0.0 0.0 5.4504" Properties=species:S:1:pos:R:3:momenta:R:3 time_fs=55.0 temperature_K=48.112420157844944 pbc="T T T"
Si       0.04023435       0.00495273       0.10072297       0.49203820       0.08792484      -0.02744699
Si       1.32796721       1.42454303       1.44911436      -0.04489908      -0.45396775      -0.37913574
Si      -0.05569518       2.82725596       2.73122054       0.58223819      -0.17393692       0.18713476
Si       1.45153534       4.16332814       4.16362044       0.34476465       0.26221778       0.45220711
Si       2.74471876       0.00598212       2.70626766      -0.22775043       0.05811291       0.27630739
Si       4.19221412       1.26197606       4.04801477      -0.34965200      -0.47688656       0.13779593
Si       2.64131911       2.61191250      -0.11481344      -0.53356494       0.13867184      -0.29271691
Si       4.00890629       4.05124946       1.26705271      -0.26317458       0.55786390      -0.35414556
8
Lattice="5.4504 0.0 0.0 0.0 5.4504 0.0 0.0 0.0 5.4504" Properties=species:S:1:pos:R:3:momenta:R:3 time_fs=57.5 temperature_K=39.09214274285137 pbc="T T T"
Si       0.04444800       0.00558255       0.10017738       0.46847717       0.05529699      -0.09781559
Si       1.32774387       1.42052208       1.44562727      -0.00542458      -0.46328056      -0.41624072
Si      -0.05017915       2.82579715       2.73330243       0.67586640      -0.15911901       0.28730037
Si       1.45336910       4.16543732       4.16673100       0.07365742       0.21987838       0.25742996
Si       2.74281767       0.00641803       2.70844814      -0.20677065       0.04112395       0.22080439
Si       4.18871773       1.25856751       4.04945441      -0.44770365      -0.30032661       0.19112844
Si       2.63778983       2.61291294      -0.11667504      -0.27155960       0.08895129      -0.13166711
Si       4.00649296       4.05596242       1.26413441      -0.28654251       0.51747563      -0.31093976
8
Lattice="5.4504 0.0 0.0 0.0 5.4504 0.0 0.0 0.0 5.4504" Properties=species:S:1:pos:R:3:momenta:R:3 time_fs=60.0 temperature_K=37.76356548768189 pbc="T T T"
Si       0.04837360       0.00590901       0.09900637       0.42592929       0.01885257      -0.17033897
Si       1.32788319       1.41647909       1.44187069       0.03791129      -0.45915707      -0.44074381
Si      -0.04393472       2.82448044       2.73621229       0.74853054      -0.14177864       0.37590669
Si       1.45282257       4.16716130       4.16810274      -0.19775320       0.17325779       0.05569646
Si       2.74110620       0.00669510       2.71010706      -0.18458833       0.02193241       0.15748900
Si       4.18442490       1.25675489       4.05135014      -0.53149199      -0.11278243       0.24195830
Si       2.63658911       2.61346041      -0.11710221      -0.00281261       0.03652346       0.03429169
Si       4.00393515       4.06025976       1.26165292      -0.29572500       0.46315194      -0.25425939
8
Lattice="5.4504 0.0 0.0 0.0 5.4504 0.0 0.0 0.0 5.4504" Properties=species:S:1:pos:R:3:momenta:R:3 time_fs=62.5 temperature_K=44.22019745825205 pbc="T T T"
Si       0.05184095       0.00590690       0.09719554       0.36359650      -0.01948705      -0.24394045
Si       1.32841497       1.41252723       1.43795483       0.08414265      -0.44267486      -0.45274289
Si      -0.03715221       2.82331923       2.73983478       0.79872045      -0.12393701       0.44976460
Si       1.44994001       4.16844207       4.16770459      -0.45878110       0.11769662      -0.14618574
Si       2.73959014       0.00679787       2.71118836      -0.16223885       0.00142162       0.08923084
Si       4.17946769       1.25661099       4.05367577      -0.59943677       0.08038236       0.28925029
Si       2.63773042       2.61356701      -0.11607856       0.26229495      -0.01043101       0.19912623
Si       4.00136804       4.06402872       1.25972470      -0.28829784       0.39702939      -0.18450292
8
Lattice="5.4504 0.0 0.0 0.0 5.4504 0.0 0.0 0.0 5.4504" Properties=species:S:1:pos:R:3:momenta:R:3 time_fs=65.0 temperature_K=57.50947422039389 pbc="T T T"
Si       0.05467694       0.00556901       0.09474135       0.28163527      -0.05754471      -0.31721812
Si       1.32935913       1.40876806       1.43398652       0.13197374      -0.41540662      -0.45292086
Si      -0.03003286       2.82230822       2.74402837       0.82544081      -0.10784821       0.50606909
Si       1.44485728       4.16918332       4.16556459      -0.69925536       0.04926358      -0.34155755
Si       2.73826724       0.00671902       2.71166253      -0.14052928      -0.01942741       0.01921134
Si       4.17398957       1.25816064       4.05639484      -0.65050214       0.27356836       0.33168984
Si       2.64113775       2.61331511      -0.11363887       0.51377014      -0.04417131       0.35725056
Si       3.99894495       4.06717663       1.25846068      -0.26253317       0.32156637      -0.10252433
8
Lattice="5.4504 0.0 0.0 0.0 5.4504 0.0 0.0 0.0 5.4504" Properties=species:S:1:pos:R:3:momenta:R:3 time_fs=67.5 temperature_K=75.84746701430952 pbc="T T T"
Si       0.05671436       0.00490775       0.09165367       0.18125045      -0.09304821      -0.38853886
Si       1.33072296       1.40528744       1.43006392       0.17983504      -0.37935385      -0.44257265
Si      -0.02278467       2.82142152       2.74862870       0.82811854      -0.09595209       0.54239875
Si       1.43779510       4.16926080       4.16176726      -0.91002084      -0.03436816      -0.52421634
Si       2.73712923       0.00645996       2.71152883      -0.12003520      -0.03962622      -0.04919226
Si       4.16814073       1.26137908       4.05945823      -0.68419612       0.46106799       0.36770646
Si       2.64665106       2.61284990      -0.10986322       0.74246313      -0.05820469       0.50396220
Si       3.99683123       4.06963356       1.25796261      -0.21741498       0.23948528      -0.00954734
8
Lattice="5.4504 0.0 0.0 0.0 5.4504 0.0 0.0 0.0 5.4504" Properties=species:S:1:pos:R:3:momenta:R:3 time_fs=70.0 temperature_K=96.96190552366443 pbc="T T T"
Si       0.05780133       0.00395508       0.08795705       0.06474260      -0.12382988      -0.45619962
Si       1.33249919       1.40215223       1.42627131       0.22597786      -0.33684091      -0.42357514
Si      -0.01561920       2.82061138       2.75345183       0.80649772      -0.09080529       0.55668907
Si       1.42904821       4.16853908       4.15644859      -1.08337232      -0.13335512      -0.68860586
Si       2.73616367       0.00603046       2.71081646      -0.10113011      -0.05825642      -0.11253733
Si       4.16207334       1.26619194       4.06280214      -0.70053975       0.63728528       0.39551872
Si       2.65403551       2.61236568      -0.10486775       0.94047218      -0.04786479       0.63575517
Si       3.99519797       4.07135415       1.25832039      -0.15264816       0.15366718       0.09295495
8
Lattice="5.4504 0.0 0.0 0.0 5.4504 0.0 0.0 0.0 5.4504" Properties=species:S:1:pos:R:3:momenta:R:3 time_fs=72.5 temperature_K=118.48187932868471 pbc="T T T"
Si       0.05781057       0.00276078       0.08369075      -0.06458653      -0.14801851      -0.51856886
Si       1.33466480       1.39940801       1.42267432       0.26857478      -0.29037900      -0.39828740
Si      -0.00874895       2.81980741       2.75829731       0.76063984      -0.09500766       0.54724637
Si       1.41897133       4.16689179       4.14979003      -1.21332439      -0.24547054      -0.82989199
Si       2.73535571       0.00544785       2.70958423      -0.08401189      -0.07451727      -0.16753489
Si       4.15593721       1.27247714       4.06634663      -0.70005947       0.79693252       0.41325673
Si       2.66299367       2.61208842      -0.09879347       1.10143323      -0.01060418       0.75044818
Si       3.99421565       4.07231860       1.25961020      -0.06866554       0.06706470       0.20333182
8
Lattice="5.4504 0.0 0.0 0.0 5.4504 0.0 0.0 0.0 5.4504" Properties=species:S:1:pos:R:3:momenta:R:3 time_fs=75.0 temperature_K=138.30412239947148 pbc="T T T"
Si       0.05664758       0.00138913       0.07890728      -0.20257171      -0.16418127      -0.57428200
Si       1.33718099       1.39707817       1.41931630       0.30585686      -0.24250924      -0.36942039
Si      -0.00238400       2.81891665       2.76295186       0.69105643      -0.11110291       0.51284270
Si       1.40796325       4.16422182       4.14201204      -1.29583262      -0.36632182      -0.94399419
Si       2.73468912       0.00473573       2.70791841      -0.06882081      -0.08778981      -0.21121944
Si       4.14987536       1.28006858       4.06999583      -0.68376889       0.93528712       0.41917047
Si       2.67317983       2.61225688      -0.09179499       1.22067254       0.05397456       0.84707544
Si       3.99404787       4.07253305       1.26189326       0.03340822      -0.01735658       0.31982735
8
Lattice="5.4504 0.0 0.0 0.0 5.4504 0.0 0.0 0.0 5.4504" Properties=species:S:1:pos:R:3:momenta:R:3 time_fs=77.5 temperature_K=154.8771442710675 pbc="T T T"
Si       0.05425733      -0.00008527       0.07366944      -0.34439496      -0.17140762      -0.62235560
Si       1.33999384       1.39516424       1.41621628       0.33613218      -0.19567032      -0.33976896
Si       0.00327241       2.81782451       2.76719387       0.59882100      -0.14147888       0.45281796
Si       1.39644886       4.16047787       4.13336743      -1.32898097      -0.48995796      -1.02758827
Si       2.73414653       0.00392210       2.70592917      -0.05565948      -0.09768760      -0.24112062
Si       4.14402043       1.28876253       4.07363950      -0.65298777       1.04852596       0.41175044
Si       2.68421504       2.61310468      -0.08403088       1.29527952       0.14435980       0.92564526
Si       3.99484557       4.07202935       1.26521519       0.15179050      -0.09668331       0.44061974
8
Lattice="5.4504 0.0 0.0 0.0 5.4504 0.0 0.0 0.0 5.4504" Properties=species:S:1:pos:R:3:momenta:R:3 time_fs=80.0 temperature_K=167.3664083401434 pbc="T T T"
Si       0.05062877      -0.00158230       0.06804699      -0.48486982      -0.16934862      -0.66218311
Si       1.34303520       1.39364721       1.41336927       0.35788919      -0.15210720      -0.31202383
Si       0.00802930       2.81639678       2.77079873       0.48570084      -0.18818565       0.36718598
Si       1.38486099       4.15566524       4.12413484      -1.31279847      -0.60945583      -1.07809676
Si       2.73371003       0.00303732       2.70374565      -0.04454888      -0.10406046      -0.25538800
Si       4.13849194       1.29832635       4.07715596      -0.60950165       1.13382261       0.38995177
Si       2.69570269       2.61484506      -0.07565667       1.32411002       0.25746814       0.98675889
Si       3.99674109       4.07086436       1.26960523       0.28401878      -0.16813294       0.56379500
8
Lattice="5.4504 0.0 0.0 0.0 5.4504 0.0 0.0 0.0 5.4504" Properties=species:S:1:pos:R:3:momenta:R:3 time_fs=82.5 temperature_K=175.73106019899274 pbc="T T T"
Si       0.04579653      -0.00302158       0.06211308      -0.61880744      -0.15832629      -0.69361760
Si       1.34622538       1.39248952       1.41074739       0.36999918      -0.11380727      -0.28869187
Si       0.01171505       2.81448401       2.77354601       0.35438820      -0.25258383       0.25694258
Si       1.37362445       4.14985197       4.11461145      -1.24912837      -0.71758540      -1.09390957
Si       2.73336187       0.00211196       2.70151010      -0.03544172      -0.10699737      -0.25287862
Si       4.13339010       1.30850659       4.08041775      -0.55591329       1.18929588       0.35353213
Si       2.70724379       2.61765907      -0.06682174       1.30778789       0.38910337       1.03115674
Si       3.99984283       4.06911848       1.27507595       0.42711557      -0.22909903       0.68746615
8
Lattice="5.4504 0.0 0.0 0.0 5.4504 0.0 0.0 0.0 5.4504" Properties=species:S:1:pos:R:3:momenta:R:3 time_fs=85.0 temperature_K=180.69970448321968 pbc="T T T"
Si       0.03983963      -0.00432856       0.05594001      -0.74123343      -0.13928540      -0.71697992
Si       1.34947635       1.39163751       1.40830258       0.37169535      -0.08246380      -0.27185110
Si       0.01418623       2.81192932       2.77522931       0.20868176      -0.33495389       0.12434938
Si       1.36313936       4.14316596       4.10510382      -1.14177502      -0.80810743      -1.07452057
Si       2.73308491       0.00117523       2.69937138      -0.02824173      -0.10672593      -0.23329284
Si       4.12879008       1.31903892       4.08329935      -0.49533507       1.21438066       0.30322097
Si       2.71845275       2.62168731      -0.05766923       1.24870027       0.53424914       1.05953429
Si       4.00423070       4.06689432       1.28162278       0.57750789      -0.27709329       0.80953974
8
Lattice="5.4504 0.0 0.0 0.0 5.4504 0.0 0.0 0.0 5.4504" Properties=species:S:1:pos:R:3:momenta:R:3 time_fs=87.5 temperature_K=183.63045301754985 pbc="T T T"
Si       0.03287954      -0.00543881       0.04959588      -0.84750013      -0.11364711      -0.73286310
Si       1.35269536       1.39102408       1.40597060       0.36268193      -0.05945386      -0.26314812
Si       0.01533828       2.80857895       2.77566843       0.05370782      -0.43426962      -0.02681820
Si       1.35376375       4.13578188       4.09591674      -0.99658293      -0.87667626      -1.02091311
Si       2.73286306       0.00025329       2.69747588      -0.02280250      -0.10369650      -0.19747572
Si       4.12473740       1.32966034       4.08568639      -0.43141142       1.20996537       0.24082191
Si       2.72897149       2.62702466      -0.04833602       1.15075877       0.68759117       1.07259315
Si       4.00995113       4.06431562       1.28922211       0.73114850      -0.30981314       0.92780315
8
Lattice="5.4504 0.0 0.0 0.0 5.4504 0.0 0.0 0.0 5.4504" Properties=species:S:1:pos:R:3:momenta:R:3 time_fs=90.0 temperature_K=186.12109871470332 pbc="T T T"
Si       0.02507586      -0.00630261       0.04314313      -0.93346593      -0.08323015      -0.74194954
Si       1.35578934       1.39057154       1.40367446       0.34318471      -0.04582120      -0.26383628
Si       0.01511765       2.80429450       2.77472316      -0.10400250      -0.54802411      -0.19121188
Si       1.34579732       4.12790326       4.08733983      -0.82083246      -0.92097925      -0.93549916
Si       2.73268185      -0.00063146       2.69595925      -0.01889695      -0.09827219      -0.14694597
Si       4.12124322       1.34012115       4.08748437      -0.36842515       1.17806997       0.16904980
Si       2.73848242       2.63371911      -0.03895404       1.01919495       0.84363830       1.07072633
Si       4.01701234       4.06152452       1.29782983       0.88324338      -0.32538130       1.03966665
8
Lattice="5.4504 0.0 0.0 0.0 5.4504 0.0 0.0 0.0 5.4504" Properties=species:S:1:pos:R:3:momenta:R:3 time_fs=92.5 temperature_K=189.58257153239245 pbc="T T T"
Si       0.01662256      -0.00688583       0.03663806      -0.99556349      -0.04979992      -0.74496924
Si       1.35866939       1.39019449       1.40132826       0.31391535      -0.04229006      -0.27469558
Si       0.01353347       2.79896581       2.77230639      -0.25670765      -0.67231691      -0.36208109
Si       1.33947162       4.11974523       4.07963553      -0.62293231      -0.94073258      -0.82217987
Si       2.73252922      -0.00145932       2.69494181      -0.01619444      -0.09073962      -0.08370280
Si       4.11827861       1.35019273       4.08862624      -0.31114758       1.12154731       0.09143142
Si       2.74671791       2.64176971      -0.02965306       0.86028832       0.99684623       1.05411636
Si       4.02537723       4.05867719       1.30737677       1.02834183      -0.32251439       1.14208074
8
Lattice="5.4504 0.0 0.0 0.0 5.4504 0.0 0.0 0.0 5.4504" Properties=species:S:1:pos:R:3:momenta:R:3 time_fs=95.0 temperature_K=194.98475758263623 pbc="T T T"
Si       0.00773934      -0.00717042       0.03013044      -1.03149718      -0.01529456      -0.74264625
Si       1.36125474       1.38980247       1.39884142       0.27601856      -0.04930427      -0.29601663
Si       0.01066637       2.79252175       2.76839497      -0.39586659      -0.80217498      -0.53161908
Si       1.33493840       4.11151613       4.07302424      -0.41271964      -0.93771692      -0.68668506
Si       2.73239638      -0.00221353       2.69452398      -0.01430762      -0.08151248      -0.01029383
Si       4.11577276       1.35967578       4.08907848      -0.26432190       1.04418127       0.01211874
Si       2.75347157       2.65112957      -0.02056019       0.68174011       1.14228379       1.02324660
Si       4.03496043       4.05593826       1.31776665       1.16095429      -0.30046179       1.23189548
8
Lattice="5.4504 0.0 0.0 0.0 5.4504 0.0 0.0 0.0 5.4504" Properties=species:S:1:pos:R:3:momenta:R:3 time_fs=97.5 temperature_K=202.5119050200224 pbc="T T T"
Si      -0.00133935      -0.00715627       0.02366429      -1.04016879       0.01818108      -0.73560884
Si       1.36347630       1.38930206       1.39612264       0.23100888      -0.06711368      -0.32771140
Si       0.00667344       2.78493777       2.76303706      -0.51263082      -0.93206783      -0.69137095
Si       1.33225869       4.10340137       4.06766913      -0.20088988      -0.91528174      -0.53619671
Si       2.73227785      -0.00288151       2.69478197      -0.01282631      -0.07112345       0.07032020
Si       4.11361467       1.36840635       4.08884640      -0.23234563       0.95022592      -0.06425038
Si       2.75860891       2.66171193      -0.01179624       0.49211985       1.27579484       0.97911350
Si       4.04562948       4.05347831       1.32887474       1.27573275      -0.25861510       1.30570455
8
Lattice="5.4504 0.0 0.0 0.0 5.4504 0.0 0.0 0.0 5.4504" Properties=species:S:1:pos:R:3:momenta:R:3 time_fs=100.0 temperature_K=211.34843302352186 pbc="T T T"
Si      -0.01037333      -0.00685999       0.01727788      -1.02127500       0.04897657      -0.72450081
Si       1.36527989       1.38859849       1.39308260       0.18079229      -0.09574634      -0.36938993
Si       0.00178862       2.77623674       2.75635679      -0.59840760      -1.05682694      -0.83251932
Si       1.33140119       4.09555292       4.06366856       0.00236303      -0.87758641      -0.37819601
Si       2.73217248      -0.00345521       2.69576519      -0.01121559      -0.05996728       0.15504397
Si       4.11165743       1.37625899       4.08797609      -0.21900473       0.84419107      -0.13306519
Si       2.76206962       2.67339609      -0.00347140       0.29968091       1.39364105       0.92305824
Si       4.05720410       4.05147199       1.34054427       1.36706674      -0.19668167       1.35956902
