8
Lattice="5.4504 0.0 0.0 0.0 5.4504 0.0 0.0 0.0 5.4504" Properties=species:S:1:pos:R:3:momenta:R:3 time_fs=0.0 temperature_K=300.0000000000001 pbc="T T T"
Si       0.00000000       0.00000000       0.00000000       0.02002556      -0.15248147       0.86102025
Si       1.36260000       1.36260000       1.36260000      -0.17891388       0.97795914       1.04442787
Si       0.00000000       2.72520000       2.72520000      -0.21861087       1.67179471       0.86712523
Si       1.36260000       4.08780000       4.08780000      -1.15372342      -0.03832433      -0.88234083
Si       2.72520000       0.00000000       2.72520000       0.67374100      -0.03073151      -0.78440535
Si       4.08780000       1.36260000       4.08780000       0.75030077       0.31245433      -0.20338906
Si       2.72520000       2.72520000       0.00000000       1.20699627      -1.57042424      -0.13984422
Si       4.08780000       4.08780000       1.36260000      -1.09981542      -1.17024663      -0.76259388
8
Lattice="5.4504 0.0 0.0 0.0 5.4504 0.0 0.0 0.0 5.4504" Properties=species:S:1:pos:R:3:momenta:R:3 time_fs=10.0 temperature_K=207.3276166388439 pbc="T T T"
Si       0.00077296      -0.00485135       0.02960232       0.02742078      -0.11330684       0.81685613
Si       1.35619764       1.39576247       1.39831764      -0.19020886       0.88902488       0.97421565
Si      -0.00902554       2.78070420       2.75258399      -0.33932535       1.41805490       0.61516275
Si       1.32760838       4.08797356       4.06099579      -0.70374461       0.09808874      -0.54070790
Si       2.74728401      -0.00101063       2.69948410       0.54904334      -0.02460348      -0.64043976
Si       4.11448774       1.37101690       4.08027207       0.78799453       0.10096861      -0.23916328
Si       2.76232848       2.67264229      -0.00684807       0.78130399      -1.37653284      -0.29755935
Si       4.05154633       4.04896256       1.33679217      -0.91248383      -0.99169396      -0.68836424
8
Lattice="5.4504 0.0 0.0 0.0 5.4504 0.0 0.0 0.0 5.4504" Properties=species:S:1:pos:R:3:momenta:R:3 time_fs=20.0 temperature_K=104.33696957630522 pbc="T T T"
Si       0.00240739      -0.00737494       0.05616816       0.07592653      -0.02561763       0.69112314
Si       1.34924190       1.42289056       1.42907490      -0.20672454       0.63811806       0.76215480
Si      -0.02570537       2.81977070       2.76386741      -0.61327553       0.78226776       0.00623454
Si       1.32050057       4.09761005       4.05550881       0.34152778       0.46736612       0.26174195
Si       2.76146639      -0.00148758       2.68284568       0.24493887       0.00099043      -0.28965024
Si       4.14315800       1.36610117       4.07052067       0.84133745      -0.40925281      -0.31801437
Si       2.77309443       2.63178952      -0.02254892      -0.21295232      -0.93257916      -0.60653585
Si       4.02703671       4.02190053       1.31576331      -0.47077821      -0.52129274      -0.50705398
8
Lattice="5.4504 0.0 0.0 0.0 5.4504 0.0 0.0 0.0 5.4504" Properties=species:S:1:pos:R:3:momenta:R:3 time_fs=30.0 temperature_K=139.36707068824313 pbc="T T T"
Si       0.00687600      -0.00646382       0.07742840       0.19136666       0.07698250       0.52012456
Si       1.34186137       1.43901476       1.45027889      -0.21208236       0.27034187       0.43507438
Si      -0.04904510       2.83596612       2.75487081      -0.64809750       0.18499036      -0.45121429
Si       1.34977184       4.11888282       4.07807600       1.24560908       0.69216625       0.96532179
Si       2.76432383      -0.00071714       2.67959770      -0.06843573       0.04504644       0.09393742
Si       4.17150491       1.34258195       4.05888090       0.73928197      -0.90355719      -0.32505566
Si       2.74814962       2.60849932      -0.04863312      -1.14831596      -0.39561032      -0.86166949
Si       4.01775753       4.01343599       1.30070041      -0.09932616       0.02964011      -0.37651870
8
Lattice="5.4504 0.0 0.0 0.0 5.4504 0.0 0.0 0.0 5.4504" Properties=species:S:1:pos:R:3:momenta:R:3 time_fs=40.0 temperature_K=156.85557321328537 pbc="T T T"
Si       0.01642331      -0.00234596       0.09232808       0.35846294       0.14887959       0.32855053
Si       1.33475188       1.44152303       1.45889179      -0.18769320      -0.11941650       0.05658344
Si      -0.06568187       2.83630181       2.73825322      -0.24149629      -0.11672059      -0.41674537
Si       1.39911501       4.14186509       4.11693589       1.43678879       0.57690126       1.15928424
Si       2.75829671       0.00162613       2.68780143      -0.24693347       0.08507225       0.34090201
Si       4.19176574       1.30675678       4.04951322       0.37951119      -1.07205414      -0.18930371
Si       2.70010851       2.60319419      -0.08024958      -1.46719266       0.05825027      -0.89567247
Si       4.01642071       4.02227895       1.28772594      -0.03144727       0.43908791      -0.38359866
8
Lattice="5.4504 0.0 0.0 0.0 5.4504 0.0 0.0 0.0 5.4504" Properties=species:S:1:pos:R:3:momenta:R:3 time_fs=50.0 temperature_K=83.70153082010307 pbc="T T T"
Si       0.03156359       0.00295643       0.10003247       0.48936303       0.13600096       0.10416272
Si       1.32935127       1.43203464       1.45485154      -0.11019688      -0.39327072      -0.26937675
Si      -0.06386548       2.83046379       2.72984816       0.34136234      -0.18885827      -0.03268335
Si       1.44101480       4.15798874       4.15259788       0.84429892       0.35091049       0.79515303
Si       2.74901347       0.00473118       2.70067881      -0.26070074       0.08250623       0.35456272
Si       4.19637636       1.27306583       4.04657087      -0.12008051      -0.77752351       0.02661204
Si       2.65486161       2.60884808      -0.10711144      -0.99734752       0.20032144      -0.57734372
Si       4.01288439       4.04111132       1.27373170      -0.18669861       0.58991342      -0.40108670
8
Lattice="5.4504 0.0 0.0 0.0 5.4504 0.0 0.0 0.0 5.4504" Properties=species:S:1:pos:R:3:momenta:R:3 time_fs=60.0 temperature_K=37.76356548768189 pbc="T T T"
Si       0.04837360       0.00590901       0.09900637       0.42592929       0.01885257      -0.17033897
Si       1.32788319       1.41647909       1.44187069       0.03791129      -0.45915707      -0.44074381
Si      -0.04393472       2.82448044       2.73621229       0.74853054      -0.14177864       0.37590669
Si       1.45282257       4.16716130       4.16810274      -0.19775320       0.17325779       0.05569646
Si       2.74110620       0.00669510       2.71010706      -0.18458833       0.02193241       0.15748900
Si       4.18442490       1.25675489       4.05135014      -0.53149199      -0.11278243       0.24195830
Si       2.63658911       2.61346041      -0.11710221      -0.00281261       0.03652346       0.03429169
Si       4.00393515       4.06025976       1.26165292      -0.29572500       0.46315194      -0.25425939
8
Lattice="5.4504 0.0 0.0 0.0 5.4504 0.0 0.0 0.0 5.4504" Properties=species:S:1:pos:R:3:momenta:R:3 time_fs=70.0 temperature_K=96.96190552366443 pbc="T T T"
Si       0.05780133       0.00395508       0.08795705       0.06474260      -0.12382988      -0.45619962
Si       1.33249919       1.40215223       1.42627131       0.22597786      -0.33684091      -0.42357514
Si      -0.01561920       2.82061138       2.75345183       0.80649772      -0.09080529       0.55668907
Si       1.42904821       4.16853908       4.15644859      -1.08337232      -0.13335512      -0.68860586
Si       2.73616367       0.00603046       2.71081646      -0.10113011      -0.05825642      -0.11253733
Si       4.16207334       1.26619194       4.06280214      -0.70053975       0.63728528       0.39551872
Si       2.65403551       2.61236568      -0.10486775       0.94047218      -0.04786479       0.63575517
Si       3.99519797       4.07135415       1.25832039      -0.15264816       0.15366718       0.09295495
8
Lattice="5.4504 0.0 0.0 0.0 5.4504 0.0 0.0 0.0 5.4504" Properties=species:S:1:pos:R:3:momenta:R:3 time_fs=80.0 temperature_K=167.3664083401434 pbc="T T T"
Si       0.05062877      -0.00158230       0.06804699      -0.48486982      -0.16934862      -0.66218311
Si       1.34303520       1.39364721       1.41336927       0.35788919      -0.15210720      -0.31202383
Si       0.00802930       2.81639678       2.77079873       0.48570084      -0.18818565       0.36718598
Si       1.38486099       4.15566524       4.12413484      -1.31279847      -0.60945583      -1.07809676
Si       2.73371003       0.00303732       2.70374565      -0.04454888      -0.10406046      -0.25538800
Si       4.13849194       1.29832635       4.07715596      -0.60950165       1.13382261       0.38995177
Si       2.69570269       2.61484506      -0.07565667       1.32411002       0.25746814       0.98675889
Si       3.99674109       4.07086436       1.26960523       0.28401878      -0.16813294       0.56379500
8
Lattice="5.4504 0.0 0.0 0.0 5.4504 0.0 0.0 0.0 5.4504" Properties=species:S:1:pos:R:3:momenta:R:3 time_fs=90.0 temperature_K=186.12109871470332 pbc="T T T"
Si       0.02507586      -0.00630261       0.04314313      -0.93346593      -0.08323015      -0.74194954
Si       1.35578934       1.39057154       1.40367446       0.34318471      -0.04582120      -0.26383628
Si       0.01511765       2.80429450       2.77472316      -0.10400250      -0.54802411      -0.19121188
Si       1.34579732       4.12790326       4.08733983      -0.82083246      -0.92097925      -0.93549916
Si       2.73268185      -0.00063146       2.69595925      -0.01889695      -0.09827219      -0.14694597
Si       4.12124322       1.34012115       4.08748437      -0.36842515       1.17806997       0.16904980
Si       2.73848242       2.63371911      -0.03895404       1.01919495       0.84363830       1.07072633
Si       4.01701234       4.06152452       1.29782983       0.88324338      -0.32538130       1.03966665
8
Lattice="5.4504 0.0 0.0 0.0 5.4504 0.0 0.0 0.0 5.4504" Properties=species:S:1:pos:R:3:momenta:R:3 time_fs=100.0 temperature_K=211.34843302352186 pbc="T T T"
Si      -0.01037333      -0.00685999       0.01727788      -1.02127500       0.04897657      -0.72450081
Si       1.36527989       1.38859849       1.39308260       0.18079229      -0.09574634      -0.36938993
Si       0.00178862       2.77623674       2.75635679      -0.59840760      -1.05682694      -0.83251932
Si       1.33140119       4.09555292       4.06366856       0.00236303      -0.87758641      -0.37819601
Si       2.73217248      -0.00345521       2.69576519      -0.01121559      -0.05996728       0.15504397
Si       4.11165743       1.37625899       4.08797609      -0.21900473       0.84419107      -0.13306519
Si       2.76206962       2.67339609      -0.00347140       0.29968091       1.39364105       0.92305824
Si       4.05720410       4.05147199       1.34054427       1.36706674      -0.19668167       1.35956902
8
Lattice="5.4504 0.0 0.0 0.0 5.4504 0.0 0.0 0.0 5.4504" Properties=species:S:1:pos:R:3:momenta:R:3 time_fs=110.0 temperature_K=228.00364284314063 pbc="T T T"
Si      -0.04144414      -0.00359568      -0.00683206      -0.69355763       0.12207527      -0.64574283
Si       1.36791191       1.38197332       1.37618371      -0.02458004      -0.30652830      -0.61402739
Si      -0.01986168       2.73198162       2.72125789      -0.51802624      -1.43530014      -1.07597978
Si       1.34285360       4.06862294       4.06094348       0.56895650      -0.64969436       0.18769008
Si       2.73191993      -0.00468868       2.70700295      -0.00413779      -0.00967996       0.47448033
Si       4.10209397       1.39773264       4.08026475      -0.38735701       0.38475830      -0.26117382
Si       2.76031391       2.72774871       0.02381848      -0.35061237       1.65173436       0.62654030
Si       4.10741249       4.05142515       1.38856080       1.40931462       0.24263484       1.30821309
8
Lattice="5.4504 0.0 0.0 0.0 5.4504 0.0 0.0 0.0 5.4504" Properties=species:S:1:pos:R:3:momenta:R:3 time_fs=120.0 temperature_K=193.02215546454065 pbc="T T T"
Si      -0.05584799       0.00052173      -0.02755788      -0.10893129       0.09799863      -0.54029427
Si       1.36493311       1.36601888       1.34960920      -0.11307351      -0.61246835      -0.90235937
Si      -0.02712490       2.67895129       2.68807306       0.16593984      -1.54571190      -0.73902037
Si       1.36422904       4.05055251       4.07278946       0.55073152      -0.37728108       0.41818983
Si       2.73149347      -0.00416277       2.72713861      -0.03265317       0.03804198       0.64056191
Si       4.08147195       1.40448645       4.07324284      -0.81089186       0.03485160      -0.09305163
Si       2.74258437       2.78414299       0.04098752      -0.57791211       1.50187915       0.38413764
Si       4.14946096       4.07068894       1.42691718       0.92679060       0.86268996       0.83183622
8
Lattice="5.4504 0.0 0.0 0.0 5.4504 0.0 0.0 0.0 5.4504" Properties=species:S:1:pos:R:3:momenta:R:3 time_fs=130.0 temperature_K=165.0903397466101 pbc="T T T"
Si      -0.04946926       0.00252857      -0.04524719       0.44033551       0.01194119      -0.48714048
Si       1.36283659       1.33956278       1.31413069       0.03743790      -0.87938529      -1.09750128
Si      -0.00805396       2.62819215       2.67292799       0.87108759      -1.28612462      -0.11346039
Si       1.37543926       4.04266691       4.08527790       0.03324094      -0.07346690       0.23498605
Si       2.72830910      -0.00229500       2.74892920      -0.17216642       0.06364509       0.56284572
Si       4.04634398       1.40306640       4.07624468      -1.15263144      -0.07051404       0.28605036
Si       2.72548443       2.82826031       0.05344178      -0.33567792       0.96863316       0.36736687
Si       4.17030986       4.10921788       1.44549495       0.27837388       1.26527140       0.24685310
8
Lattice="5.4504 0.0 0.0 0.0 5.4504 0.0 0.0 0.0 5.4504" Properties=species:S:1:pos:R:3:momenta:R:3 time_fs=140.0 temperature_K=146.70546712461984 pbc="T T T"
Si      -0.02900440       0.00143660      -0.06282268       0.65490527      -0.06754602      -0.53118034
Si       1.37005143       1.30701611       1.27588248       0.39570849      -0.93145988      -1.03304788
Si       0.02777865       2.59342009       2.67913635       1.07773407      -0.65856892       0.43179765
Si       1.36536205       4.04434752       4.08658113      -0.58397847       0.13578185      -0.17027043
Si       2.71815321      -0.00004730       2.76392858      -0.41762508       0.06186243       0.26818970
Si       4.00554329       1.40238950       4.09344550      -1.10076433       0.06129959       0.68016438
Si       2.72149681       2.84997647       0.06828382       0.10807485       0.27510867       0.48171652
Si       4.17181897       4.15266102       1.44676480      -0.13405474       1.12352225      -0.12736963
8
Lattice="5.4504 0.0 0.0 0.0 5.4504 0.0 0.0 0.0 5.4504" Properties=species:S:1:pos:R:3:momenta:R:3 time_fs=150.0 temperature_K=105.95221363283436 pbc="T T T"
Si      -0.00915916      -0.00141843      -0.08248355       0.40859748      -0.08023725      -0.57873899
Si       1.39034704       1.27834020       1.24603799       0.73558085      -0.65337328      -0.61905014
Si       0.06091936       2.58298122       2.69948131       0.73959149       0.04212058       0.66677715
Si       1.33889573       4.04902038       4.07460772      -0.84177092       0.08564360      -0.47435512
Si       2.69965879       0.00204897       2.76696520      -0.61260880       0.06079806      -0.08627839
Si       3.97455107       1.40803429       4.12121789      -0.60988869       0.24993911       0.85109911
Si       2.73098086       2.84967956       0.08569236       0.38340322      -0.23766041       0.47921706
Si       4.16500632       4.18251383       1.43968107      -0.20290456       0.53276956      -0.23867070
8
Lattice="5.4504 0.0 0.0 0.0 5.4504 0.0 0.0 0.0 5.4504" Properties=species:S:1:pos:R:3:momenta:R:3 time_fs=160.0 temperature_K=53.52729244060119 pbc="T T T"
Si      -0.00366311      -0.00299997      -0.10120027      -0.10835206       0.00395303      -0.44917778
Si       1.41774225       1.26424894       1.23506819       0.75681340      -0.12720345       0.00292978
Si       0.07543322       2.59333177       2.72091052       0.05232433       0.49030910       0.48993360
Si       1.31293537       4.04825944       4.05696277      -0.55819508      -0.13584801      -0.47806182
Si       2.67838296       0.00432411       2.75964775      -0.54698407       0.06700883      -0.29415770
Si       3.96557802       1.41795140       4.14820660       0.10946502       0.28083649       0.61995479
Si       2.74445159       2.83772164       0.09933127       0.33636443      -0.38485172       0.26978921
Si       4.16033971       4.18836268       1.43227314      -0.04143591      -0.19420430      -0.16121014
8
Lattice="5.4504 0.0 0.0 0.0 5.4504 0.0 0.0 0.0 5.4504" Properties=species:S:1:pos:R:3:momenta:R:3 time_fs=170.0 temperature_K=54.17308494550832 pbc="T T T"
Si      -0.01521740      -0.00082921      -0.11078676      -0.49905965       0.11176930      -0.05837154
Si       1.43763150       1.26996526       1.24533884       0.30323771       0.44634954       0.55336090
Si       0.06370078       2.61303435       2.72988722      -0.70594671       0.58347405      -0.01068848
Si       1.30398838       4.04064915       4.04486339       0.07353309      -0.26728005      -0.17108008
Si       2.66552459       0.00614649       2.74931842      -0.13462355       0.02366165      -0.25696038
Si       3.98116878       1.42544819       4.16031268       0.74058334       0.12638659       0.02991107
Si       2.75205221       2.82603845       0.10291276       0.08145466      -0.25598824      -0.08228826
Si       4.16235116       4.17074733       1.42935344       0.14082114      -0.76837284      -0.00388329
8
Lattice="5.4504 0.0 0.0 0.0 5.4504 0.0 0.0 0.0 5.4504" Properties=species:S:1:pos:R:3:momenta:R:3 time_fs=180.0 temperature_K=131.5883960832338 pbc="T T T"
Si      -0.03366169       0.00340574      -0.10330630      -0.47931046       0.10332924       0.49903100
Si       1.43512639       1.29404506       1.27117653      -0.46945821       0.89735867       0.88642863
Si       0.02965034       2.63180381       2.72002860      -1.15611357       0.47739186      -0.52006459
Si       1.31733965       4.03196367       4.04649462       0.64338902      -0.19854039       0.26019869
Si       2.67146592       0.00510493       2.74355344       0.48587033      -0.08983399      -0.06283678
Si       4.01305350       1.42622242       4.14927550       1.00702799      -0.08007484      -0.64545863
Si       2.75031671       2.81999825       0.09286671      -0.16138600      -0.11108460      -0.49295637
Si       4.16790921       4.13865612       1.43111088       0.12998097      -0.99854596       0.07565801
8
Lattice="5.4504 0.0 0.0 0.0 5.4504 0.0 0.0 0.0 5.4504" Properties=species:S:1:pos:R:3:momenta:R:3 time_fs=190.0 temperature_K=197.05102220044253 pbc="T T T"
Si      -0.04424006       0.00483078      -0.07628935      -0.08091826      -0.03325979       1.01999226
Si       1.40600892       1.32960220       1.30499554      -1.13783317       1.08079645       1.01676382
Si      -0.00984438       2.64675873       2.69787060      -0.99225086       0.39533925      -0.66378990
Si       1.34400727       4.02849938       4.06098975       0.79609105       0.02225398       0.51837609
Si       2.69821237       0.00011893       2.74429402       0.99442233      -0.18180359       0.08027229
Si       4.04653415       1.42012285       4.11827405       0.84844072      -0.26819572      -1.05735721
Si       2.74283692       2.81543967       0.06934904      -0.23126321      -0.20314209      -0.82294028
Si       4.16768482       4.10582748       1.43171633      -0.19668852      -0.81198852      -0.09131711
8
Lattice="5.4504 0.0 0.0 0.0 5.4504 0.0 0.0 0.0 5.4504" Properties=species:S:1:pos:R:3:momenta:R:3 time_fs=200.0 temperature_K=190.10325302247753 pbc="T T T"
Si      -0.03807417       0.00130774      -0.03504116       0.42474242      -0.15183290       1.27936762
Si       1.36175096       1.36543517       1.34017238      -1.28080260       0.90689379       0.96207040
Si      -0.03377037       2.66148362       2.67953438      -0.33084336       0.48856921      -0.30786039
Si       1.36749353       4.03498841       4.07878423       0.48531977       0.36657728       0.44579979
Si       2.73590268      -0.00638924       2.74691176       1.07092103      -0.17303369       0.03514451
Si       4.07020321       1.40711516       4.08115642       0.50391826      -0.48183049      -0.97659218
Si       2.73629606       2.80201162       0.03812579      -0.12231339      -0.61184105      -0.91742618
Si       4.15139813       4.08524753       1.42155618      -0.75094204      -0.34350218      -0.52050360
8
Lattice="5.4504 0.0 0.0 0.0 5.4504 0.0 0.0 0.0 5.4504" Properties=species:S:1:pos:R:3:momenta:R:3 time_fs=210.0 temperature_K=179.2512281751878 pbc="T T T"
Si      -0.01660334      -0.00424037       0.00866867       0.75691794      -0.14253731       1.15629376
Si       1.32442866       1.38935809       1.37006489      -0.75073760       0.42432490       0.72148029
Si      -0.03339985       2.68445879       2.68004937       0.30081180       0.87493949       0.36031876
Si       1.37582386       4.05454845       4.08970078      -0.00515224       0.74098034       0.16617136
Si       2.76673682      -0.01099146       2.74478064       0.60945201      -0.07910247      -0.17578039
Si       4.08358201       1.38642849       4.05531001       0.30675866      -0.69208375      -0.44535885
Si       2.73442345       2.77072756       0.00773170      -0.00287119      -1.17827959      -0.79875688
Si       4.11620842       4.08091046       1.39489393      -1.21517929       0.05175837      -0.98436805
8
Lattice="5.4504 0.0 0.0 0.0 5.4504 0.0 0.0 0.0 5.4504" Properties=species:S:1:pos:R:3:momenta:R:3 time_fs=220.0 temperature_K=218.16524654637388 pbc="T T T"
Si       0.01110430      -0.00749020       0.04226324       0.77134944      -0.03439022       0.73148750
Si       1.31385842       1.39451542       1.39006639       0.16486629      -0.10543105       0.43681741
Si      -0.01790510       2.72446949       2.70375309       0.50468346       1.40037462       0.94325269
Si       1.36960350       4.08484134       4.09125190      -0.29129690       0.94981189      -0.04531524
Si       2.77457593      -0.01130854       2.73419208      -0.18339715       0.06804437      -0.42327368
Si       4.09524793       1.35985126       4.05172369       0.40944385      -0.80766219       0.23038425
Si       2.73376330       2.72153888      -0.01739857      -0.07669094      -1.58039090      -0.64592562
Si       4.07095176       4.08478235       1.35534817      -1.29895796       0.10964347      -1.22742735
8
Lattice="5.4504 0.0 0.0 0.0 5.4504 0.0 0.0 0.0 5.4504" Properties=species:S:1:pos:R:3:momenta:R:3 time_fs=230.0 temperature_K=238.45224213331974 pbc="T T T"
Si       0.03388746      -0.00660070       0.05910213       0.49410371       0.07932970       0.24532846
Si       1.33362077       1.38563786       1.40284347       0.88475518      -0.33015664       0.33184909
Si      -0.00295556       2.77854609       2.74045376       0.29422769       1.60199830       1.05797475
Si       1.36020363       4.11790231       4.08948995      -0.17912994       0.89948491      -0.01007985
Si       2.75539321      -0.00606058       2.71648037      -0.84759041       0.22613781      -0.55898891
Si       4.11453982       1.33128343       4.06847261       0.70434878      -0.80680652       0.65779041
Si       2.72660915       2.66506973      -0.03830846      -0.35205168      -1.57036831      -0.56245930
Si       4.02990156       4.08542186       1.31266613      -0.99866325      -0.09961928      -1.16141468
8
Lattice="5.4504 0.0 0.0 0.0 5.4504 0.0 0.0 0.0 5.4504" Properties=species:S:1:pos:R:3:momenta:R:3 time_fs=240.0 temperature_K=158.93859986817108 pbc="T T T"
Si       0.04442185      -0.00263742       0.06195023       0.11304580       0.13443209      -0.02763398
Si       1.36789432       1.37668823       1.41504276       0.94260144      -0.11148001       0.37075819
Si      -0.00008217       2.82958427       2.77132547      -0.15093159       1.22423913       0.63389031
Si       1.36067234       4.14532956       4.09315899       0.23414784       0.63937225       0.24373149
Si       2.72238899       0.00314042       2.69786751      -0.91381639       0.26619613      -0.45897946
Si       4.14336615       1.30501046       4.09190084       0.90225171      -0.66656948       0.59379775
Si       2.70939182       2.61688144      -0.05743253      -0.60553191      -1.12199025      -0.53867796
Si       4.00314674       4.07720305       1.27738671      -0.52176683      -0.36419990      -0.81688639
8
Lattice="5.4504 0.0 0.0 0.0 5.4504 0.0 0.0 0.0 5.4504" Properties=species:S:1:pos:R:3:momenta:R:3 time_fs=250.0 temperature_K=62.79205625239285 pbc="T T T"
Si       0.04345724       0.00172099       0.06146261      -0.13191418       0.09721446       0.05700940
Si       1.39081493       1.38151096       1.42791532       0.26926190       0.41454244       0.34491825
Si      -0.01319800       2.85969666       2.78204413      -0.56688393       0.46781911      -0.02335101
Si       1.37639296       4.16080974       4.10674759       0.63036084       0.22393309       0.51383777
Si       2.69994741       0.00975334       2.68733969      -0.27210276       0.07631821      -0.11359930
Si       4.17354376       1.28704666       4.10468409       0.75600780      -0.32557609       0.08089165
Si       2.68733526       2.58960142      -0.07633205      -0.60065179      -0.41854070      -0.54188534
Si       3.99290647       4.06106021       1.25733859      -0.08407780      -0.53571056      -0.31782143
8
Lattice="5.4504 0.0 0.0 0.0 5.4504 0.0 0.0 0.0 5.4504" Properties=species:S:1:pos:R:3:momenta:R:3 time_fs=260.0 temperature_K=81.57928323905492 pbc="T T T"
Si       0.03768812       0.00317700       0.06850056      -0.17062986      -0.02027112       0.35416755
Si       1.38353617       1.40508549       1.43820192      -0.67071009       0.88760926       0.24013816
Si      -0.03596752       2.86254278       2.77172281      -0.66747219      -0.27356837      -0.51390087
Si       1.40063629       4.16025883       4.12645515       0.68048095      -0.24854635       0.56148842
Si       2.70663940       0.00754964       2.69016107       0.64400028      -0.18860509       0.25004151
Si       4.19220081       1.28384733       4.09587725       0.27261516       0.14618294      -0.57157124
Si       2.67114979       2.58712118      -0.09461228      -0.27831542       0.24441092      -0.47980228
Si       3.99531698       4.04161776       1.25489348       0.19003128      -0.54721220       0.15943874
8
Lattice="5.4504 0.0 0.0 0.0 5.4504 0.0 0.0 0.0 5.4504" Properties=species:S:1:pos:R:3:momenta:R:3 time_fs=270.0 temperature_K=135.70497367663083 pbc="T T T"
Si       0.03237792       0.00062757       0.08466834      -0.13509693      -0.11123342       0.52102144
Si       1.34876342       1.43846049       1.44480602      -1.20430998       0.93018505       0.13397732
Si      -0.05535026       2.84413709       2.75056103      -0.38788682      -0.71223770      -0.62763799
Si       1.41877689       4.14541938       4.14214599       0.29282957      -0.55229579       0.28216726
Si       2.74054940      -0.00117619       2.70177845       1.18968321      -0.27118038       0.36288413
Si       4.19195526       1.29589553       4.06816676      -0.26873042       0.50342865      -0.93140834
Si       2.67003782       2.60310748      -0.10734818       0.22733676       0.60622325      -0.20357661
Si       4.00408959       4.02472865       1.26642156       0.28617468      -0.39288970       0.46257277
8
Lattice="5.4504 0.0 0.0 0.0 5.4504 0.0 0.0 0.0 5.4504" Properties=species:S:1:pos:R:3:momenta:R:3 time_fs=280.0 temperature_K=103.99492356747348 pbc="T T T"
Si       0.02749926      -0.00331745       0.10065057      -0.15851097      -0.09629520       0.32921374
Si       1.30855520       1.46379021       1.44641015      -0.95945503       0.43561715      -0.07046591
Si      -0.06100737       2.81780683       2.73225170       0.06957908      -0.72044143      -0.36587967
Si       1.41835871       4.12538851       4.14333328      -0.32651469      -0.54370439      -0.23521646
Si       2.78127622      -0.00927005       2.71239539       1.01296355      -0.17375184       0.20926199
Si       4.17591332       1.31583389       4.03750353      -0.60130464       0.59194405      -0.72285282
Si       2.68640004       2.62534907      -0.10603863       0.67584699       0.61941438       0.30452869
Si       4.01420468       4.01561897       1.28469399       0.28739578      -0.11278276       0.55141045
8
Lattice="5.4504 0.0 0.0 0.0 5.4504 0.0 0.0 0.0 5.4504" Properties=species:S:1:pos:R:3:momenta:R:3 time_fs=290.0 temperature_K=82.18007557563882 pbc="T T T"
Si       0.02037587      -0.00522459       0.10390732      -0.25830105      -0.00648906      -0.18375258
Si       1.28940104       1.46480461       1.43803359      -0.06367207      -0.40489204      -0.42173688
Si      -0.05152039       2.79772166       2.72728566       0.44487985      -0.39915009       0.08802712
Si       1.39752064       4.10966285       4.12620281      -0.81217637      -0.34111334      -0.70800013
Si       2.80390433      -0.01286812       2.71498130       0.20320566      -0.03164123      -0.06628756
Si       4.15325703       1.33481163       4.02320275      -0.65107367       0.46780971      -0.04416154
Si       2.71358103       2.64486457      -0.08598811       0.80876231       0.49752344       0.81640952
Si       4.02468050       4.01742739       1.30357465       0.32837538       0.21795259       0.51950205
8
Lattice="5.4504 0.0 0.0 0.0 5.4504 0.0 0.0 0.0 5.4504" Properties=species:S:1:pos:R:3:momenta:R:3 time_fs=300.0 temperature_K=165.09943110127858 pbc="T T T"
Si       0.00921225      -0.00375265       0.08627117      -0.37519133       0.08581951      -0.82531345
Si       1.30530439       1.43634561       1.41763967       0.93373879      -1.17201301      -0.71206335
Si      -0.03207254       2.78903116       2.73653514       0.63538671      -0.15114280       0.38370987
Si       1.36660413       4.10171708       4.09793780      -0.87306029      -0.11556218      -0.83356243
Si       2.79307391      -0.01150050       2.70853219      -0.80983121       0.10959385      -0.27592842
Si       4.13246784       1.34745123       4.03519605      -0.52385900       0.24793845       0.70101460
Si       2.73799841       2.66133760      -0.05207748       0.52530445       0.47081936       1.06550085
Si       4.03861166       4.03057046       1.32116543       0.48751194       0.52454679       0.49664234
8
Lattice="5.4504 0.0 0.0 0.0 5.4504 0.0 0.0 0.0 5.4504" Properties=species:S:1:pos:R:3:momenta:R:3 time_fs=310.0 temperature_K=245.24789332028837 pbc="T T T"
Si      -0.00483189       0.00017505       0.04784334      -0.40248605       0.12660771      -1.32282301
Si       1.34874717       1.38810701       1.39088258       1.42934079      -1.49415640      -0.78836232
Si      -0.00929212       2.78170220       2.74914091       0.63643535      -0.35340153       0.26553146
Si       1.34180523       4.10136712       4.07316082      -0.48423088       0.08908842      -0.51758516
Si       2.75145844      -0.00552798       2.69845431      -1.46620784       0.21723554      -0.24985964
Si       4.11626818       1.35239023       4.06794560      -0.42603771       0.05054795       1.08625508
Si       2.74765000       2.67973746      -0.01543105       0.01683338       0.60805386       0.98003538
Si       4.05939506       4.05324890       1.33920346       0.69635300       0.75602442       0.54680821
8
Lattice="5.4504 0.0 0.0 0.0 5.4504 0.0 0.0 0.0 5.4504" Properties=species:S:1:pos:R:3:momenta:R:3 time_fs=320.0 temperature_K=222.02878208467047 pbc="T T T"
Si      -0.01669016       0.00404985      -0.00132312      -0.24172307       0.07869511      -1.40381023
Si       1.39577839       1.33844209       1.36303412       1.12383084      -1.25570397      -0.81813158
Si       0.01081396       2.75975263       2.75153228       0.50235661      -0.93525904      -0.15172691
Si       1.33490902       4.10668581       4.06458576       0.08681150       0.17975949       0.03701996
Si       2.69970466       0.00172240       2.69487211      -1.34887852       0.16034888       0.09814571
Si       4.10017297       1.35309609       4.10462145      -0.53626821       0.03152663       0.91919513
Si       2.74047286       2.70536988       0.01398437      -0.38484210       0.87161108       0.68286404
Si       4.08603836       4.08208124       1.35989301       0.79871300       0.86902177       0.63644388
8
Lattice="5.4504 0.0 0.0 0.0 5.4504 0.0 0.0 0.0 5.4504" Properties=species:S:1:pos:R:3:momenta:R:3 time_fs=330.0 temperature_K=176.3183443753353 pbc="T T T"
Si      -0.02012731       0.00479091      -0.04470735       0.04870022      -0.04108525      -1.01222905
Si       1.41998608       1.30512708       1.33233043       0.20307338      -0.61094975      -0.94450004
Si       0.02596777       2.71678144       2.73898955       0.37362340      -1.47616728      -0.53499742
Si       1.34541683       4.11034799       4.07415775       0.45434400      -0.03097335       0.45962134
Si       2.66576475       0.00369445       2.70770950      -0.50790162      -0.05566217       0.63824930
Si       4.07641664       1.35749913       4.12719134      -0.83748580       0.25298156       0.32724422
Si       2.72459595       2.74089285       0.03222763      -0.46170987       1.14858749       0.37528823
Si       4.11317934       4.11206614       1.38330113       0.72735634       0.81326870       0.69132341
8
Lattice="5.4504 0.0 0.0 0.0 5.4504 0.0 0.0 0.0 5.4504" Properties=species:S:1:pos:R:3:momenta:R:3 time_fs=340.0 temperature_K=186.0283809343697 pbc="T T T"
Si      -0.01491352       0.00164764      -0.06970337       0.20192396      -0.12204926      -0.41642228
Si       1.41052464       1.29562929       1.29837492      -0.67439990       0.03239558      -0.95216518
Si       0.03739771       2.66153204       2.71703690       0.27750756      -1.59525680      -0.67247798
Si       1.36189947       4.10098588       4.09210022       0.41945984      -0.53224826       0.49218284
Si       2.66585995      -0.00079422       2.73675788       0.47685293      -0.16045733       0.94706461
Si       4.04247433       1.37176779       4.12705722      -1.06160747       0.55766941      -0.30405263
Si       2.71217868       2.78376242       0.04220047      -0.19933391       1.25800338       0.23368323
Si       4.13577880       4.13666916       1.40737572       0.55959703       0.56194323       0.67218739
8
Lattice="5.4504 0.0 0.0 0.0 5.4504 0.0 0.0 0.0 5.4504" Properties=species:S:1:pos:R:3:momenta:R:3 time_fs=350.0 temperature_K=159.07932169614628 pbc="T T T"
Si      -0.01000210      -0.00247323      -0.07589560       0.02379287      -0.09952902       0.01107267
Si       1.38042876       1.30374773       1.26936352      -0.91650527       0.37433509      -0.66148993
Si       0.04442916       2.61137055       2.69526200       0.10291587      -1.19128358      -0.52809525
Si       1.37077425       4.07353919       4.10366951       0.04706425      -0.99753722       0.11056359
Si       2.69336186      -0.00490694       2.76784812       0.98163890      -0.05347916       0.74660202
Si       4.00653008       1.39533179       4.11004589      -0.91939490       0.76761597      -0.59059508
Si       2.71302366       2.82494765       0.05147585       0.26318880       1.03467250       0.33493596
Si       4.15265440       4.14964326       1.42943069       0.41729952       0.16520538       0.57700600
8
Lattice="5.4504 0.0 0.0 0.0 5.4504 0.0 0.0 0.0 5.4504" Properties=species:S:1:pos:R:3:momenta:R:3 time_fs=360.0 temperature_K=93.9788900507917 pbc="T T T"
Si      -0.01575597      -0.00496089      -0.07295079      -0.36399225      -0.04489689       0.10281840
Si       1.35483809       1.31816578       1.25398591      -0.45134035       0.40509660      -0.20878053
Si       0.04313131       2.58264932       2.68263539      -0.19012337      -0.41154956      -0.17090127
Si       1.36398935       4.03550547       4.09748477      -0.42546075      -1.10480301      -0.46573554
Si       2.72621630      -0.00461264       2.78456633       0.78826376       0.05272934       0.17236016
Si       3.98287503       1.42388849       4.09128589      -0.38304630       0.83946785      -0.41190219
Si       2.72998100       2.85241102       0.06714334       0.67164147       0.50024829       0.55884738
Si       4.16592495       4.14815345       1.44704913       0.35405786      -0.23629266       0.42329356
8
Lattice="5.4504 0.0 0.0 0.0 5.4504 0.0 0.0 0.0 5.4504" Properties=species:S:1:pos:R:3:momenta:R:3 time_fs=370.0 temperature_K=85.26703283869756 pbc="T T T"
Si      -0.03433129      -0.00585638      -0.07144303      -0.65657905      -0.00822361      -0.03731783
Si       1.35246749       1.32955822       1.25452166       0.31867354       0.21941127       0.22824309
Si       0.03139124       2.58302425       2.68339117      -0.45839048       0.40344681       0.19136374
Si       1.34356526       4.00107375       4.07353282      -0.68249301      -0.80186121      -0.83598326
Si       2.74306088      -0.00248682       2.77937902       0.13540330       0.05815137      -0.44731491
Si       3.98116253       1.45156698       4.08456130       0.27296329       0.69551923       0.04762591
Si       2.75600632       2.85914432       0.08855139       0.74371600      -0.10408292       0.61410263
Si       4.17787763       4.13517567       1.45870565       0.32670647      -0.46236097       0.23928063
8
Lattice="5.4504 0.0 0.0 0.0 5.4504 0.0 0.0 0.0 5.4504" Properties=species:S:1:pos:R:3:momenta:R:3 time_fs=380.0 temperature_K=98.65512505245076 pbc="T T T"
Si      -0.05754535      -0.00550114      -0.07559044      -0.60062852       0.02939179      -0.18134196
Si       1.37410693       1.33249434       1.26885318       0.83693223      -0.05250309       0.56925229
Si       0.01374355       2.60659876       2.69313988      -0.50288223       0.85962635       0.31518753
Si       1.32122049       3.98314813       4.04497705      -0.52320926      -0.17950869      -0.70635162
Si       2.73581044      -0.00063296       2.75648686      -0.51034448       0.05149407      -0.79649220
Si       3.99916060       1.46870817       4.09403107       0.69589200       0.23100902       0.45984659
Si       2.77703020       2.84698677       0.10601697       0.39977794      -0.55395872       0.32955095
Si       4.18767320       4.11939791       1.46328541       0.20446235      -0.38555076       0.01034838
8
Lattice="5.4504 0.0 0.0 0.0 5.4504 0.0 0.0 0.0 5.4504" Properties=species:S:1:pos:R:3:momenta:R:3 time_fs=390.0 temperature_K=89.43422123697569 pbc="T T T"
Si      -0.07149096      -0.00400287      -0.08186411      -0.13467740       0.04861347      -0.13495703
Si       1.40387607       1.32690964       1.29215326       0.75471447      -0.23619153       0.72116986
Si      -0.00059760       2.63700334       2.70245477      -0.27973808       0.80224996       0.19166412
Si       1.31097177       3.99037124       4.02935355      -0.02815149       0.59494208      -0.13741368
Si       2.71207076       0.00107878       2.72884486      -0.75955215       0.03751244      -0.70660994
Si       4.02522686       1.46515891       4.11308998       0.73121904      -0.44589519       0.56521431
Si       2.78155079       2.82330498       0.10888503      -0.14993192      -0.75664750      -0.18520052
Si       4.18959238       4.11137597       1.45828262      -0.13388243      -0.04458376      -0.31386712
8
Lattice="5.4504 0.0 0.0 0.0 5.4504 0.0 0.0 0.0 5.4504" Properties=species:S:1:pos:R:3:momenta:R:3 time_fs=400.0 temperature_K=120.02975405291214 pbc="T T T"
Si      -0.06394134      -0.00275505      -0.08191166       0.58466878       0.01593336       0.17381631
Si       1.42004747       1.31885603       1.31602224       0.09703132      -0.17916262       0.59963210
Si      -0.00423430       2.65951882       2.70626018       0.07744917       0.47643753       0.04033924
Si       1.31958170       4.02272820       4.03639883       0.49624116       1.19441838       0.52009075
Si       2.68908242       0.00094023       2.71187501      -0.47066715      -0.05958403      -0.21245946
Si       4.04678912       1.43865436       4.12894278       0.46824649      -1.02924125       0.28114910
Si       2.76757163       2.79681276       0.09303492      -0.61581328      -0.72713198      -0.70469507
Si       4.17630337       4.11644463       1.44057765      -0.63715646       0.30833056      -0.69787298
8
Lattice="5.4504 0.0 0.0 0.0 5.4504 0.0 0.0 0.0 5.4504" Properties=species:S:1:pos:R:3:momenta:R:3 time_fs=410.0 temperature_K=210.3065843147722 pbc="T T T"
Si      -0.03165554      -0.00273730      -0.06768399       1.20924625      -0.00268376       0.65132885
Si       1.40861254       1.31687584       1.33224871      -0.72998844       0.08602007       0.32671332
Si       0.00383626       2.67209001       2.70693318       0.35003158       0.29283777       0.02574598
Si       1.34264920       4.06808616       4.06244348       0.76832526       1.30291304       0.90313015
Si       2.68317916      -0.00310586       2.71526213       0.15538581      -0.15352750       0.38469708
Si       4.05715802       1.39691327       4.12988236       0.13740356      -1.29758520      -0.24263097
Si       2.74153806       2.77361834       0.06157281      -0.82293105      -0.59789148      -1.05685877
Si       4.14588237       4.12945953       1.41054129      -1.06747292       0.36991701      -0.99212567
8
Lattice="5.4504 0.0 0.0 0.0 5.4504 0.0 0.0 0.0 5.4504" Properties=species:S:1:pos:R:3:momenta:R:3 time_fs=420.0 temperature_K=247.47534222452316 pbc="T T T"
Si       0.01462881      -0.00179575      -0.03712737       1.32544255       0.06933613       1.06068787
Si       1.37382969       1.32514011       1.34063903      -1.15045738       0.38083875       0.20026258
Si       0.01679646       2.68403864       2.70980871       0.33238525       0.44585998       0.15955463
Si       1.36958858       4.10771406       4.09452098       0.72323711       0.89355012       0.85851769
Si       2.69870621      -0.00766711       2.73463871       0.67861964      -0.07597021       0.63487138
Si       4.05900238       1.35204320       4.11307250       0.02720579      -1.20867660      -0.67250756
Si       2.71350913       2.75403736       0.02211050      -0.73338449      -0.54887026      -1.15414723
Si       4.10513880       4.13768946       1.37353692      -1.20304846       0.04393205      -1.08723938
8
Lattice="5.4504 0.0 0.0 0.0 5.4504 0.0 0.0 0.0 5.4504" Properties=species:S:1:pos:R:3:momenta:R:3 time_fs=430.0 temperature_K=176.5750272839289 pbc="T T T"
Si       0.05299176       0.00192738       0.00267157       0.76614985       0.12337219       1.14755447
Si       1.33663673       1.34320450       1.35008667      -0.86091558       0.65117288       0.39284650
Si       0.02320224       2.70611874       2.71899688      -0.01167793       0.83828855       0.36828739
Si       1.39040967       4.12790990       4.11818620       0.43526262       0.25806222       0.44867104
Si       2.72536011      -0.00741032       2.75296470       0.75957298       0.08283002       0.32230777
Si       4.06393331       1.31659980       4.08752167       0.32500924      -0.76021954      -0.71054556
Si       2.69295145       2.73279545      -0.01619651      -0.41245670      -0.70214268      -0.99954443
Si       4.06571480       4.13005453       1.33696878      -1.00094446      -0.49136370      -0.96957718
8
Lattice="5.4504 0.0 0.0 0.0 5.4504 0.0 0.0 0.0 5.4504" Properties=species:S:1:pos:R:3:momenta:R:3 time_fs=440.0 temperature_K=150.42113310283125 pbc="T T T"
Si       0.06386084       0.00486145       0.03874832      -0.15679026       0.02006139       0.86868660
Si       1.31924738       1.37042660       1.37058798      -0.09910423       0.89124747       0.78978496
Si       0.01412856       2.74261254       2.73481025      -0.51089745       1.22550033       0.51174511
Si       1.39861421       4.12767951       4.12435836       0.02857544      -0.22137852      -0.09058366
Si       2.74663393      -0.00343919       2.75265143       0.40657753       0.11868065      -0.36911621
Si       4.08520003       1.30171438       4.06812278       0.90757714      -0.07782988      -0.35337208
Si       2.68584804       2.70316591      -0.04594355       0.00800989      -0.99935078      -0.68725957
Si       4.03766708       4.10417878       1.30786438      -0.58394802      -0.95693072      -0.66988517
8
Lattice="5.4504 0.0 0.0 0.0 5.4504 0.0 0.0 0.0 5.4504" Properties=species:S:1:pos:R:3:momenta:R:3 time_fs=450.0 temperature_K=219.23586869137364 pbc="T T T"
Si       0.04482129       0.00283375       0.06206198      -0.84811919      -0.12499740       0.47112822
Si       1.32844966       1.40343513       1.40402085       0.56053869       0.95329929       1.07775155
Si      -0.01112537       2.78893402       2.75244108      -0.89091310       1.36611835       0.45771860
Si       1.39331334       4.11641304       4.11399512      -0.30088111      -0.36540185      -0.45006668
Si       2.75286454      -0.00010120       2.72826038      -0.02739297       0.07132195      -0.96709141
Si       4.12553408       1.30948766       4.06354508       1.33186065       0.46379960       0.06756786
Si       2.69250678       2.66401785      -0.06424347       0.34431182      -1.20082240      -0.37102548
Si       4.02483575       4.06617973       1.29111895      -0.16940475      -1.16331758      -0.28598268
8
Lattice="5.4504 0.0 0.0 0.0 5.4504 0.0 0.0 0.0 5.4504" Properties=species:S:1:pos:R:3:momenta:R:3 time_fs=460.0 temperature_K=192.34244689764768 pbc="T T T"
Si       0.01188293      -0.00254030       0.07340698      -0.92382035      -0.16282247       0.21183604
Si       1.35198448       1.43409069       1.44191892       0.68032241       0.76429594       1.02469633
Si      -0.04412622       2.83371097       2.76442500      -0.92706557       1.12977475       0.20371055
Si       1.38056520       4.10562879       4.09717853      -0.37918502      -0.21046597      -0.44823480
Si       2.74802538       0.00180906       2.69093827      -0.18888715       0.03837088      -1.06859364
Si       4.17221413       1.32886568       4.06958277       1.24329413       0.56478725       0.21925387
Si       2.70727498       2.62289144      -0.07314356       0.45638375      -1.09000253      -0.15771354
Si       4.02337919       4.02674365       1.28689306       0.03895785      -1.03393790       0.01504520
8
Lattice="5.4504 0.0 0.0 0.0 5.4504 0.0 0.0 0.0 5.4504" Properties=species:S:1:pos:R:3:momenta:R:3 time_fs=470.0 temperature_K=57.389532956990664 pbc="T T T"
Si      -0.01310745      -0.00762683       0.07922357      -0.43394640      -0.12004589       0.14851608
Si       1.36950523       1.45535418       1.47151754       0.25061933       0.43989674       0.61751822
Si      -0.07102727       2.86401092       2.76627876      -0.54453293       0.55927305      -0.08539887
Si       1.36990206       4.10361413       4.08626066      -0.19545528       0.10760448      -0.14093766
Si       2.74355911       0.00212377       2.65991265      -0.02402585      -0.02963942      -0.63002792
Si       4.20685741       1.34424699       4.07513665       0.67705706       0.26311098       0.05689374
Si       2.72141368       2.59176438      -0.07652239       0.31275445      -0.64258809      -0.04949316
Si       4.02409731       3.99771243       1.28939253      -0.04247028      -0.57761189       0.08292958
8
Lattice="5.4504 0.0 0.0 0.0 5.4504 0.0 0.0 0.0 5.4504" Properties=species:S:1:pos:R:3:momenta:R:3 time_fs=480.0 temperature_K=15.16690975803019 pbc="T T T"
Si      -0.01586217      -0.01046897       0.08495705       0.27890660      -0.03522816       0.18342922
Si       1.36708199       1.46420374       1.48271580      -0.38460536       0.05393137       0.00616469
Si      -0.07879544       2.87128008       2.76012763       0.12363393      -0.14100152      -0.23779608
Si       1.36833558       4.11284624       4.08833765       0.11115347       0.39969799       0.25462656
Si       2.74770628      -0.00041357       2.65021097       0.25514480      -0.10624700       0.09280449
Si       4.21714596       1.34506479       4.07200734      -0.09705278      -0.22721225      -0.23723773
Si       2.72705529       2.58006503      -0.07727909      -0.00896966      -0.01428366      -0.00041137
Si       4.01853258       3.98862263       1.29012262      -0.27821090       0.07034318      -0.06157976
8
Lattice="5.4504 0.0 0.0 0.0 5.4504 0.0 0.0 0.0 5.4504" Properties=species:S:1:pos:R:3:momenta:R:3 time_fs=490.0 temperature_K=111.07084545762103 pbc="T T T"
Si       0.00422610      -0.00958320       0.09144574       0.80799215       0.09052186       0.16672609
Si       1.34553959       1.45807011       1.47208352      -0.77323755      -0.41778734      -0.59432234
Si      -0.06310763       2.85606933       2.75132097       0.72963565      -0.68047913      -0.24784280
Si       1.37708353       4.12929617       4.10257265       0.36913234       0.50049842       0.52419281
Si       2.75933015      -0.00396116       2.66544176       0.36040586      -0.07321855       0.73478721
Si       4.20127203       1.32914641       4.05990118      -0.76923462      -0.64844926      -0.41642250
Si       2.72045677       2.59026294      -0.07685998      -0.35830253       0.57168048       0.02235897
Si       4.00639954       4.00189939       1.28529414      -0.36639121       0.65723349      -0.18947742
8
Lattice="5.4504 0.0 0.0 0.0 5.4504 0.0 0.0 0.0 5.4504" Properties=species:S:1:pos:R:3:momenta:R:3 time_fs=500.0 temperature_K=173.38098350973215 pbc="T T T"
Si       0.03481599      -0.00437350       0.09444968       0.84269129       0.19274229      -0.03458013
Si       1.31936176       1.43506891       1.44368883      -0.62589753      -0.87429400      -0.97675595
Si      -0.03239165       2.82763579       2.74372653       0.94883528      -0.88945816      -0.17612424
Si       1.39214243       4.14498962       4.12191202       0.45498736       0.35935687       0.53153426
Si       2.76884787      -0.00447523       2.69691988       0.12343428       0.04457589       0.97887656
Si       4.16766773       1.30373656       4.04652278      -1.07326218      -0.72606823      -0.28768833
Si       2.70371164       2.61718255      -0.07554453      -0.56066266       0.91470875       0.06155757
Si       3.99704432       4.03143526       1.27952477      -0.11012577       0.97843656      -0.09681971
8
Lattice="5.4504 0.0 0.0 0.0 5.4504 0.0 0.0 0.0 5.4504" Properties=species:S:1:pos:R:3:momenta:R:3 time_fs=510.0 temperature_K=132.2119588182839 pbc="T T T"
Si       0.05644745       0.00207059       0.08606545       0.31132308       0.14334403      -0.48313104
Si       1.30770886       1.40020274       1.40824107       0.02156661      -1.05377160      -0.98043764
Si      -0.00172717       2.79690587       2.73949537       0.74802073      -0.83881133      -0.06413217
Si       1.40592078       4.15243524       4.13634244       0.28645832       0.04789461       0.24985016
Si       2.76450957      -0.00184727       2.72755492      -0.40007556       0.08271977       0.68852938
Si       4.13199929       1.28445215       4.04377235      -0.89159650      -0.29252429       0.17385211
Si       2.68468403       2.65040540      -0.07146577      -0.47022030       0.93354492       0.19419758
Si       4.00165727       4.06657525       1.28119414       0.39452367       0.97760384       0.22127163
8
Lattice="5.4504 0.0 0.0 0.0 5.4504 0.0 0.0 0.0 5.4504" Properties=species:S:1:pos:R:3:momenta:R:3 time_fs=520.0 temperature_K=137.51960409665372 pbc="T T T"
Si       0.05319374       0.00396779       0.05934455      -0.50147730      -0.04171566      -1.03506312
Si       1.32242142       1.36595456       1.37918012       0.79428492      -0.85154193      -0.64611042
Si       0.01751156       2.76999645       2.73879399       0.33960875      -0.69744179       0.00993174
Si       1.40918862       4.14762949       4.13715110      -0.13316890      -0.32741178      -0.22037947
Si       2.74133999       0.00012385       2.74117181      -0.87819421       0.02601783       0.07319393
Si       4.10844443       1.28732744       4.05957334      -0.44872434       0.47884900       0.70459663
Si       2.67471720       2.67983629      -0.06018923      -0.05179105       0.73048190       0.47402859
Si       4.02438314       4.09636410       1.29617429       0.87946224       0.68276238       0.63980214
8
Lattice="5.4504 0.0 0.0 0.0 5.4504 0.0 0.0 0.0 5.4504" Properties=species:S:1:pos:R:3:momenta:R:3 time_fs=530.0 temperature_K=223.60516682680526 pbc="T T T"
Si       0.02439672       0.00008676       0.01665847      -1.06242088      -0.15347345      -1.33549888
Si       1.35823442       1.34274220       1.36310145       1.14453323      -0.46641546      -0.30659863
Si       0.02252613       2.74756908       2.73890782      -0.03001160      -0.60200198      -0.02343759
Si       1.39561759       4.12949223       4.12112970      -0.63331159      -0.70497768      -0.67213276
Si       2.70861470       0.00052250       2.73451232      -0.89334319       0.00806296      -0.39011111
Si       4.09844031       1.31678831       4.08884929      -0.18226380       1.15804215       0.88453368
Si       2.68307840       2.70182044      -0.03737495       0.53461219       0.55348002       0.83036243
Si       4.06029182       4.11217845       1.32541587       1.12220576       0.20728341       1.01288288
8
Lattice="5.4504 0.0 0.0 0.0 5.4504 0.0 0.0 0.0 5.4504" Properties=species:S:1:pos:R:3:momenta:R:3 time_fs=540.0 temperature_K=245.8829029621179 pbc="T T T"
Si      -0.01430320      -0.00505777      -0.02852590      -1.05551732      -0.12614975      -1.17221063
Si       1.39415446       1.33315282       1.35403766       0.79933824      -0.09245210      -0.27052235
Si       0.01765200       2.72624965       2.73588154      -0.21108726      -0.64517439      -0.16467054
Si       1.36733363       4.09931173       4.09302962      -0.92697003      -0.99433384      -0.87978479
Si       2.68540886       0.00086299       2.71965663      -0.36144528       0.00316935      -0.37267113
Si       4.09124036       1.36383190       4.11539362      -0.28426596       1.45758446       0.55844052
Si       2.71048722       2.72139966      -0.00312742       0.98313310       0.61393739       1.10083221
Si       4.09922677       4.11144898       1.36485423       1.05681464      -0.21658118       1.20058675
8
Lattice="5.4504 0.0 0.0 0.0 5.4504 0.0 0.0 0.0 5.4504" Properties=species:S:1:pos:R:3:momenta:R:3 time_fs=550.0 temperature_K=201.063921229861 pbc="T T T"
Si      -0.04443826      -0.00841332      -0.06141440      -0.62492152      -0.06585306      -0.67706456
Si       1.40898487       1.33491577       1.34106708       0.02117646       0.16140253      -0.49429541
Si       0.01027277       2.70049268       2.72666387      -0.17906538      -0.85088992      -0.36691846
Si       1.33552039       4.06269238       4.06371964      -0.81936795      -1.04938245      -0.73723314
Si       2.68562630       0.00002589       2.71325999       0.36309159      -0.05475839       0.04837995
Si       4.07632699       1.41335725       4.12459342      -0.57747818       1.29647345      -0.04674791
Si       2.74715220       2.74750714       0.03718655       1.03480357       0.90075858       1.16333729
Si       4.13175484       4.10062217       1.40612383       0.78176154      -0.33775079       1.11054227
8
Lattice="5.4504 0.0 0.0 0.0 5.4504 0.0 0.0 0.0 5.4504" Properties=species:S:1:pos:R:3:momenta:R:3 time_fs=560.0 temperature_K=158.20713084433226 pbc="T T T"
Si      -0.05705186      -0.00957068      -0.07551298      -0.10785782       0.00274288      -0.14718244
Si       1.39720193       1.34138763       1.31946782      -0.62832740       0.15770099      -0.72180592
Si       0.00683448       2.66610071       2.71050808      -0.00189228      -1.10501708      -0.54184129
Si       1.31443752       4.02955538       4.04489378      -0.34076806      -0.79861091      -0.30500039
Si       2.70724197      -0.00232149       2.72354393       0.79007079      -0.06066387       0.51466720
Si       4.05151296       1.44964209       4.11356202      -0.81680522       0.72442206      -0.53163124
Si       2.77744961       2.78406635       0.07506463       0.62843743       1.15807201       0.95362800
Si       4.15357350       4.09233997       1.43967269       0.47714268      -0.07864612       0.77916610
8
Lattice="5.4504 0.0 0.0 0.0 5.4504 0.0 0.0 0.0 5.4504" Properties=species:S:1:pos:R:3:momenta:R:3 time_fs=570.0 temperature_K=120.83691296782654 pbc="T T T"
Si      -0.05399331      -0.00807842      -0.07418962       0.24220711       0.08128647       0.17427049
Si       1.37154833       1.34278046       1.29255413      -0.73123845      -0.11044237      -0.78443115
Si       0.01039092       2.62564303       2.69063637       0.19635226      -1.15045328      -0.55628979
Si       1.31303026       4.00909094       4.04325592       0.25132651      -0.35580001       0.20006286
Si       2.73425125      -0.00305561       2.74597821       0.65811776       0.02560390       0.70675130
Si       4.02156835       1.46224642       4.09249081      -0.85324394       0.00332772      -0.58847860
Si       2.78765254       2.82486983       0.10066412      -0.06963207       1.10981923       0.47226306
Si       4.16675178       4.09770330       1.45981004       0.30611092       0.39665829       0.37585187
8
Lattice="5.4504 0.0 0.0 0.0 5.4504 0.0 0.0 0.0 5.4504" Properties=species:S:1:pos:R:3:momenta:R:3 time_fs=580.0 temperature_K=84.09173733493824 pbc="T T T"
Si      -0.04318563      -0.00439488      -0.06705971       0.33282572       0.11625543       0.17985906
Si       1.35306095       1.33283040       1.26695935      -0.24413889      -0.44884355      -0.64375200
Si       0.01917069       2.59048339       2.67461168       0.27830405      -0.78947542      -0.31775176
Si       1.32955177       4.00475545       4.05658933       0.63537019       0.09847726       0.51149152
Si       2.74762061      -0.00104525       2.76841171       0.04870477       0.07086978       0.51194243
Si       3.99517279       1.45249329       4.07797050      -0.60620589      -0.50096314      -0.17639927
Si       2.77316618       2.85726977       0.10690778      -0.71511334       0.68892098      -0.10516550
Si       4.17664276       4.11880778       1.46680933       0.27025351       0.76475864       0.03977555
8
Lattice="5.4504 0.0 0.0 0.0 5.4504 0.0 0.0 0.0 5.4504" Properties=species:S:1:pos:R:3:momenta:R:3 time_fs=590.0 temperature_K=77.33073354825908 pbc="T T T"
Si      -0.03308720      -0.00090621      -0.06461875       0.22363364       0.07284936      -0.06680113
Si       1.35770480       1.31335501       1.25005932       0.51321747      -0.62268715      -0.28741470
Si       0.02811179       2.57423242       2.67050651       0.21568528      -0.10796403       0.09615920
Si       1.35243289       4.01493121       4.07484834       0.59333211       0.46423474       0.46993922
Si       2.73607428       0.00060576       2.77818131      -0.69131864       0.01303885       0.01488361
Si       3.98204604       1.43171835       4.08274907      -0.11931952      -0.62915795       0.45244754
Si       2.74277564       2.87041524       0.09593638      -0.92714956       0.04182230      -0.46367847
Si       4.18514189       4.14684818       1.46353780       0.19191936       0.76786385      -0.21553523
8
Lattice="5.4504 0.0 0.0 0.0 5.4504 0.0 0.0 0.0 5.4504" Properties=species:S:1:pos:R:3:momenta:R:3 time_fs=600.0 temperature_K=110.26309281864981 pbc="T T T"
Si      -0.02776836       0.00048696      -0.07182746       0.09504813       0.01101256      -0.31864042
Si       1.38595145       1.29256281       1.24866683       1.01554930      -0.51872071       0.21740795
Si       0.03378811       2.58331008       2.68095230       0.11030477       0.60783565       0.47907195
Si       1.36611202       4.03550562       4.08579953       0.13791412       0.67910240       0.12286628
Si       2.70341184       0.00010333       2.76925199      -1.07962580      -0.02762028      -0.49779770
Si       3.98685307       1.41119944       4.10714219       0.36989376      -0.52395850       0.87205676
Si       2.71499481       2.86006023       0.07872173      -0.57991728      -0.61475734      -0.46992480
Si       4.18785720       4.16797148       1.45249288      -0.06916685       0.38710620      -0.40503996
8
Lattice="5.4504 0.0 0.0 0.0 5.4504 0.0 0.0 0.0 5.4504" Properties=species:S:1:pos:R:3:momenta:R:3 time_fs=610.0 temperature_K=127.98868184412949 pbc="T T T"
Si      -0.02463013       0.00038714      -0.08326852       0.11476086      -0.00924515      -0.26461265
Si       1.42075963       1.28021130       1.26434956       0.84705883      -0.14495471       0.64467755
Si       0.03604970       2.61405993       2.70172780       0.01989857       1.09690886       0.66863015
Si       1.36094820       4.05946758       4.08306421      -0.41081371       0.64274529      -0.25742987
Si       2.66866374      -0.00045694       2.74709755      -0.78672482      -0.00259666      -0.69602177
Si       4.00509704       1.39563586       4.13739884       0.62546330      -0.36408545       0.75779002
Si       2.70565651       2.83032342       0.06493160       0.05815208      -1.02414374      -0.31766707
Si       4.17865545       4.17157166       1.43589894      -0.46779496      -0.19462846      -0.53536633
8
Lattice="5.4504 0.0 0.0 0.0 5.4504 0.0 0.0 0.0 5.4504" Properties=species:S:1:pos:R:3:momenta:R:3 time_fs=620.0 temperature_K=125.79136897054549 pbc="T T T"
Si      -0.01812473       0.00012054      -0.08529265       0.26745723      -0.00447133       0.21060995
Si       1.43735176       1.28497939       1.29063045       0.02147143       0.44371096       0.81431730
Si       0.03474945       2.65575023       2.72470233      -0.10868794       1.22125826       0.59984839
Si       1.34128944       4.07756672       4.07065971      -0.63167404       0.36563259      -0.39821224
Si       2.65526952      -0.00086297       2.72580812       0.08299568      -0.03845528      -0.45685387
Si       4.02773607       1.38564045       4.15393189       0.64128528      -0.21339044       0.12074931
Si       2.71741667       2.79318948       0.05525409       0.56035706      -1.03504266      -0.26518249
Si       4.15551196       4.15481612       1.41550605      -0.83320454      -0.73924214      -0.62527632
8
Lattice="5.4504 0.0 0.0 0.0 5.4504 0.0 0.0 0.0 5.4504" Properties=species:S:1:pos:R:3:momenta:R:3 time_fs=630.0 temperature_K=181.9472293126879 pbc="T T T"
Si      -0.00641431       0.00019554      -0.06613244       0.37925872       0.01084327       0.88620369
Si       1.42038355       1.31149264       1.31947790      -0.95996684       1.04764031       0.83053306
Si       0.02707175       2.69520691       2.74068562      -0.35089144       0.98510887       0.27791134
Si       1.32295387       4.08481122       4.05905948      -0.33338385       0.06796747      -0.21386031
Si       2.67513188      -0.00382830       2.71762275       1.00710969      -0.12546992      -0.01125412
Si       4.04926809       1.37975758       4.14366165       0.59683975      -0.14478879      -0.69937577
Si       2.73981148       2.76102083       0.04418434       0.63739387      -0.78569960      -0.39805363
Si       4.12299382       4.12254353       1.39264070      -0.97635969      -1.05560164      -0.67210424
8
Lattice="5.4504 0.0 0.0 0.0 5.4504 0.0 0.0 0.0 5.4504" Properties=species:S:1:pos:R:3:momenta:R:3 time_fs=640.0 temperature_K=253.3623351711963 pbc="T T T"
Si       0.00623319       0.00093862      -0.02561632       0.31106443       0.02986193       1.36837859
Si       1.37603707       1.35475849       1.34938975      -1.45411459       1.35774111       0.89196982
Si       0.00937661       2.72285168       2.74281177      -0.65822208       0.60042170      -0.15197379
Si       1.32213471       4.08452389       4.05835879       0.31334267      -0.04901071       0.19337952
Si       2.71944283      -0.00832207       2.72277706       1.40728805      -0.10830921       0.25095663
Si       4.07064595       1.37380468       4.10838872       0.64639991      -0.21779095      -1.23394646
Si       2.75644764       2.73768222       0.02562075       0.24615705      -0.57875762      -0.68197605
Si       4.09088216       4.08496246       1.36946947      -0.81191521      -1.03415624      -0.63678823
8
Lattice="5.4504 0.0 0.0 0.0 5.4504 0.0 0.0 0.0 5.4504" Properties=species:S:1:pos:R:3:momenta:R:3 time_fs=650.0 temperature_K=236.28938889474009 pbc="T T T"
Si       0.01363921       0.00193245       0.02426733       0.10199855       0.02071145       1.40321252
Si       1.32781060       1.40123268       1.38177886      -1.17876395       1.22365720       0.94102799
Si      -0.01745445       2.73976930       2.73227355      -0.83631818       0.42856167      -0.39357913
Si       1.34397696       4.08349409       4.07230150       0.88538695       0.01419188       0.57639657
Si       2.76505729      -0.01040573       2.73092918       1.08992747      -0.00880217       0.15750638
Si       4.09565824       1.36359575       4.06459553       0.79261984      -0.36957325      -1.15821232
Si       2.75416491       2.71775444      -0.00386389      -0.38378288      -0.60172381      -0.99013547
Si       4.06834741       4.05382695       1.34891791      -0.47106759      -0.70702298      -0.53621652
8
Lattice="5.4504 0.0 0.0 0.0 5.4504 0.0 0.0 0.0 5.4504" Properties=species:S:1:pos:R:3:momenta:R:3 time_fs=660.0 temperature_K=157.07696301455005 pbc="T T T"
Si       0.01387026       0.00212765       0.06754055      -0.06481234      -0.00888419       1.01426391
Si       1.30042757       1.43554297       1.41289334      -0.32641581       0.68386726       0.79992215
Si      -0.04556118       2.75740230       2.72003800      -0.71418710       0.63444734      -0.23866098
Si       1.37869581       4.08700289       4.09552813       1.00633152       0.20740896       0.69495638
Si       2.78990571      -0.00934563       2.73077419       0.28368554       0.06145973      -0.18983522
Si       4.12575849       1.34817493       4.03426796       0.90951935      -0.50560406      -0.50355710
Si       2.73172490       2.69333853      -0.04108140      -0.83541084      -0.81598678      -1.08133696
Si       4.05637860       4.03695631       1.33123922      -0.25871010      -0.25670824      -0.49575217
8
Lattice="5.4504 0.0 0.0 0.0 5.4504 0.0 0.0 0.0 5.4504" Properties=species:S:1:pos:R:3:momenta:R:3 time_fs=670.0 temperature_K=127.79672081837565 pbc="T T T"
Si       0.01147451       0.00162428       0.09276306      -0.03370413      -0.01387411       0.41643470
Si       1.30583502       1.44705113       1.43571572       0.59653601      -0.02395266       0.49192989
Si      -0.06364701       2.78589224       2.71898489      -0.27426047       0.98445105       0.20166236
Si       1.40800863       4.09930630       4.11701812       0.59374453       0.50702560       0.48798815
Si       2.78456934      -0.00631778       2.71762712      -0.55128528       0.11470667      -0.53890509
Si       4.15705707       1.32874592       4.03149528       0.83939369      -0.59578564       0.32883783
Si       2.70141065       2.66013085      -0.07507011      -0.81301577      -1.07477590      -0.80430073
Si       4.04649196       4.03476701       1.31266589      -0.35740838       0.10220500      -0.58364711
8
Lattice="5.4504 0.0 0.0 0.0 5.4504 0.0 0.0 0.0 5.4504" Properties=species:S:1:pos:R:3:momenta:R:3 time_fs=680.0 temperature_K=153.60505751510075 pbc="T T T"
Si       0.01387749       0.00143489       0.09750197       0.19487930       0.00264165      -0.11105553
Si       1.33641123       1.43617911       1.44742185       1.03761904      -0.53763242       0.18805043
Si      -0.06287187       2.82339112       2.73378760       0.31957999       1.09696395       0.61306045
Si       1.41715398       4.12192260       4.12789662      -0.07667396       0.75522922       0.13207732
Si       2.75636374      -0.00112865       2.69602900      -0.96305921       0.17778287      -0.63926551
Si       4.18152405       1.30766642       4.05321369       0.52105320      -0.58351311       0.82241446
Si       2.67954655       2.62016878      -0.09487352      -0.39604473      -1.15893131      -0.31984411
Si       4.02919501       4.04156568       1.29022279      -0.63735344       0.24745913      -0.68543745
8
Lattice="5.4504 0.0 0.0 0.0 5.4504 0.0 0.0 0.0 5.4504" Properties=species:S:1:pos:R:3:momenta:R:3 time_fs=690.0 temperature_K=119.73710186555608 pbc="T T T"
Si       0.02554686       0.00143291       0.08854951       0.45769947      -0.01098854      -0.33971266
Si       1.36983310       1.41469893       1.44956424       0.75740357      -0.60983300      -0.05912584
Si      -0.04339040       2.85780839       2.75824105       0.73563358       0.80276266       0.71835158
Si       1.40486774       4.14867051       4.12750101      -0.56162531       0.71426510      -0.12332914
Si       2.72466076       0.00492728       2.67721891      -0.74685295       0.13976756      -0.37607618
Si       4.19165966       1.29020282       4.08190647       0.04799263      -0.38032571       0.71812318
Si       2.67453454       2.58382166      -0.09853110       0.09510771      -0.84252914       0.07836346
Si       4.00348792       4.04963745       1.26674990      -0.78535853       0.18688106      -0.61659435
8
Lattice="5.4504 0.0 0.0 0.0 5.4504 0.0 0.0 0.0 5.4504" Properties=species:S:1:pos:R:3:momenta:R:3 time_fs=700.0 temperature_K=42.58817947383143 pbc="T T T"
Si       0.04328257       0.00029808       0.07771166       0.49932590      -0.05342556      -0.23710544
Si       1.38345506       1.39838227       1.44369009      -0.01988642      -0.27518675      -0.26581084
Si      -0.01670025       2.87535275       2.77908148       0.70848516       0.15381081       0.40611323
Si       1.38359242       4.16797259       4.12164723      -0.56710283       0.34419447      -0.17978249
Si       2.70957604       0.00670512       2.67287801      -0.07457832      -0.05454260       0.14884340
Si       4.18545363       1.28292269       4.09800600      -0.37538173      -0.02245616       0.15503612
Si       2.68392670       2.56599321      -0.09186031       0.39653195      -0.12765473       0.27127632
Si       3.97861403       4.05357325       1.25004585      -0.56739358       0.03526053      -0.29857020
8
Lattice="5.4504 0.0 0.0 0.0 5.4504 0.0 0.0 0.0 5.4504" Properties=species:S:1:pos:R:3:momenta:R:3 time_fs=710.0 temperature_K=59.79917924260346 pbc="T T T"
Si       0.05593669      -0.00187787       0.07322089       0.16164982      -0.06197203      -0.02834152
Si       1.36928649       1.39650239       1.43249597      -0.72770650       0.15009226      -0.34397047
Si       0.00125202       2.86687819       2.78317814       0.26873503      -0.63502599      -0.19686413
Si       1.37026069       4.17073219       4.11656032      -0.14952988      -0.19908269      -0.09753746
Si       2.71906201       0.00148689       2.68679918       0.56750682      -0.21797923       0.60336329
Si       4.16833965       1.28852761       4.09205419      -0.55296000       0.32982378      -0.46816713
Si       2.69881432       2.57631747      -0.08122924       0.40651217       0.70753668       0.32032437
Si       3.96824833       4.05263309       1.24812055       0.02579267      -0.07339278       0.21119316
8
Lattice="5.4504 0.0 0.0 0.0 5.4504 0.0 0.0 0.0 5.4504" Properties=species:S:1:pos:R:3:momenta:R:3 time_fs=720.0 temperature_K=158.47752668427916 pbc="T T T"
Si       0.05159093      -0.00355553       0.07354771      -0.42523097      -0.03085526      -0.00076730
Si       1.33916152       1.40601377       1.42147034      -0.88387857       0.33685919      -0.27337854
Si       0.00079859       2.83338165       2.76581584      -0.28166530      -1.21537585      -0.75584724
Si       1.37365624       4.15426410       4.11497369       0.31236071      -0.72304272      -0.00272813
Si       2.74386043      -0.00621477       2.71066674       0.75854579      -0.19191924       0.69026607
Si       4.14995885       1.30480703       4.06928406      -0.46448436       0.58399152      -0.75288359
Si       2.70974984       2.61275517      -0.07007145       0.19791505       1.31303486       0.31693506
Si       3.98242380       4.04974852       1.26551307       0.78643780      -0.07269252       0.77840376
8
Lattice="5.4504 0.0 0.0 0.0 5.4504 0.0 0.0 0.0 5.4504" Properties=species:S:1:pos:R:3:momenta:R:3 time_fs=730.0 temperature_K=210.69542768869405 pbc="T T T"
Si       0.02744569      -0.00398444       0.06961213      -0.90623422       0.00754196      -0.26945346
Si       1.31468814       1.41572244       1.41281063      -0.43038791       0.15565040      -0.24937383
Si      -0.01560287       2.78762803       2.73487592      -0.59229598      -1.31433276      -0.93155183
Si       1.38782213       4.12275642       4.11494042       0.41513990      -1.02339976      -0.02949984
Si       2.76608657      -0.01071486       2.73079501       0.44091213      -0.06001093       0.41574273
Si       4.13677398       1.32824020       4.04558407      -0.29848043       0.73835866      -0.51647125
Si       2.71283334       2.66289965      -0.05838396       0.00530227       1.47341415       0.37359248
Si       4.02115322       4.04865251       1.30096578       1.36604436       0.02277827       1.20701508
8
Lattice="5.4504 0.0 0.0 0.0 5.4504 0.0 0.0 0.0 5.4504" Properties=species:S:1:pos:R:3:momenta:R:3 time_fs=740.0 temperature_K=185.1938006373559 pbc="T T T"
Si      -0.00698303      -0.00283290       0.05260491      -0.98326218       0.06081569      -0.71372706
Si       1.31278469       1.41323299       1.40156975       0.33722590      -0.33284365      -0.42640279
Si      -0.03515173       2.74617185       2.70629764      -0.43783675      -1.01907275      -0.63324446
Si       1.39675746       4.08731254       4.11047604       0.02165196      -0.93514083      -0.25862882
Si       2.77155856      -0.01050523       2.73824871      -0.14408254       0.06774758       0.01316631
Si       4.12705830       1.35490230       4.03781098      -0.30171697       0.75957995       0.11144922
Si       2.71323372       2.71061905      -0.04170579       0.07028979       1.19549922       0.61461818
Si       4.07194225       4.05229934       1.34589776       1.43773088       0.20341476       1.29276952
8
Lattice="5.4504 0.0 0.0 0.0 5.4504 0.0 0.0 0.0 5.4504" Properties=species:S:1:pos:R:3:momenta:R:3 time_fs=750.0 temperature_K=188.7443055219812 pbc="T T T"
Si      -0.03615987       0.00012195       0.02045674      -0.62373759       0.09939577      -1.09349142
Si       1.33652602       1.39185793       1.38163399       0.95922438      -0.87009913      -0.71760372
Si      -0.04057148       2.71640866       2.69369140       0.18850762      -0.71168978      -0.07287153
Si       1.38630644       4.06102444       4.09566869      -0.62348688      -0.53897454      -0.58165136
Si       2.75686524      -0.00634211       2.73334119      -0.65912932       0.16279296      -0.25352595
Si       4.11238011       1.37951570       4.05369303      -0.57822714       0.62586226       0.76607147
Si       2.72052917       2.74427919      -0.01393188       0.36256903       0.72923625       0.97185402
Si       4.11532459       4.06433419       1.38664684       0.97428005       0.50347619       0.98121861
8
Lattice="5.4504 0.0 0.0 0.0 5.4504 0.0 0.0 0.0 5.4504" Properties=species:S:1:pos:R:3:momenta:R:3 time_fs=760.0 temperature_K=239.67055778624368 pbc="T T T"
Si      -0.04785736       0.00315194      -0.02072114      -0.03081535       0.05802829      -1.20671928
Si       1.37408744       1.35533081       1.35191409       1.09499810      -1.15907296      -0.96673376
Si      -0.02069341       2.69349711       2.69994762       0.91644726      -0.64104610       0.38151612
Si       1.35588117       4.04985383       4.07214543      -1.03832254      -0.11572114      -0.70639344
Si       2.72912036       0.00008996       2.72399524      -0.86598239       0.18914316      -0.22614481
Si       4.08512151       1.39784281       4.08722559      -0.97760997       0.41949021       1.07045755
Si       2.73749429       2.76365451       0.02428044       0.56353545       0.42879195       1.16304404
Si       4.13804621       4.08777898       1.41241275       0.33774956       0.82038656       0.49097368
8
Lattice="5.4504 0.0 0.0 0.0 5.4504 0.0 0.0 0.0 5.4504" Properties=species:S:1:pos:R:3:momenta:R:3 time_fs=770.0 temperature_K=214.16995412928495 pbc="T T T"
Si      -0.03931540       0.00346781      -0.06023137       0.47602304      -0.04074175      -1.00453065
Si       1.40717242       1.31532951       1.31533051       0.72896465      -1.06356235      -1.10081805
Si       0.01817635       2.66923088       2.71554207       1.19812781      -0.76898319       0.43114590
Si       1.32055175       4.05123557       4.05077609      -0.87672454       0.16590729      -0.45474045
Si       2.70044554       0.00562426       2.72105582      -0.72181442       0.11060830       0.09724488
Si       4.04604873       1.40901600       4.12260789      -1.20280879       0.22292490       0.87283932
Si       2.75591576       2.77805132       0.06345351       0.42861581       0.44304018       1.02255375
Si       4.14220507       4.11924461       1.42266549      -0.03038344       0.93080658       0.13630543
8
Lattice="5.4504 0.0 0.0 0.0 5.4504 0.0 0.0 0.0 5.4504" Properties=species:S:1:pos:R:3:momenta:R:3 time_fs=780.0 temperature_K=117.84037675659131 pbc="T T T"
Si      -0.01918302       0.00102793      -0.08841464       0.59278775      -0.07975232      -0.58320235
Si       1.42236963       1.28468953       1.27724134       0.13381273      -0.65048047      -1.03273856
Si       0.05545792       2.63918509       2.72536985       0.84032567      -0.93793205       0.08554794
Si       1.30068656       4.05904995       4.04314331      -0.20107451       0.23668630       0.03136522
Si       2.68119400       0.00720284       2.73189181      -0.35961912      -0.01832370       0.50915295
Si       4.00568339       1.41361092       4.14413691      -1.03383286       0.04328480       0.32514419
Si       2.76399358       2.79695060       0.09276475       0.00147017       0.65227068       0.62161085
Si       4.14099816       4.14948309       1.42506668       0.02613030       0.75424673       0.04311987
8
Lattice="5.4504 0.0 0.0 0.0 5.4504 0.0 0.0 0.0 5.4504" Properties=species:S:1:pos:R:3:momenta:R:3 time_fs=790.0 temperature_K=69.99179118683156 pbc="T T T"
Si      -0.00346973      -0.00077545      -0.10049074       0.23888336      -0.01055005      -0.11612977
Si       1.41819983       1.27122804       1.24671538      -0.32510516      -0.11548062      -0.65920681
Si       0.07280208       2.60594540       2.72059962       0.12766992      -0.90934624      -0.34118267
Si       1.30762132       4.06412604       4.05193793       0.57026576       0.00036356       0.43443861
Si       2.67547526       0.00517071       2.75377740       0.02225716      -0.08060780       0.67776066
Si       3.97795166       1.41271735       4.14515464      -0.50886075      -0.07569271      -0.24165210
Si       2.75553078       2.82323692       0.10554601      -0.46569706       0.82435660       0.10228623
Si       4.14708904       4.16955093       1.42795979       0.34058692       0.36695718       0.14368598
8
Lattice="5.4504 0.0 0.0 0.0 5.4504 0.0 0.0 0.0 5.4504" Properties=species:S:1:pos:R:3:momenta:R:3 time_fs=800.0 temperature_K=84.95939828982533 pbc="T T T"
Si      -0.00500169       0.00034191      -0.09814579      -0.32563850       0.06339065       0.21684479
Si       1.40351237       1.27599797       1.23412132      -0.45976490       0.36828459      -0.03670236
Si       0.06491707       2.57991584       2.70412620      -0.54493088      -0.51762068      -0.55076947
Si       1.33598042       4.05665905       4.07011093       0.95390998      -0.43057081       0.54826155
Si       2.68150633       0.00257169       2.77428599       0.29983640      -0.06030613       0.42728782
Si       3.97150206       1.41016850       4.13037008       0.13678953      -0.03983311      -0.54640695
Si       2.73461519       2.85158277       0.10061777      -0.66090432       0.73863669      -0.35361708
Si       4.16416850       4.17396222       1.43571353       0.60070284      -0.12198125       0.29510185
8
Lattice="5.4504 0.0 0.0 0.0 5.4504 0.0 0.0 0.0 5.4504" Properties=species:S:1:pos:R:3:momenta:R:3 time_fs=810.0 temperature_K=96.23055038481304 pbc="T T T"
Si      -0.02361814       0.00244169      -0.08769455      -0.67159596       0.03838105       0.35272712
Si       1.38903461       1.29488242       1.24407137      -0.34078588       0.67202281       0.58023384
Si       0.03831985       2.57304115       2.68572319      -0.90864302       0.15190272      -0.45116866
Si       1.36652079       4.03657435       4.08605844       0.67897557      -0.64631276       0.30080949
Si       2.69474109       0.00095493       2.78031972       0.43246808      -0.03803229      -0.10425273
Si       3.98575700       1.41160580       4.11093679       0.63367543       0.13342071      -0.51402311
Si       2.71509870       2.87029781       0.08441632      -0.36811701       0.26373785      -0.50551349
Si       4.18534635       4.16140180       1.44736874       0.54402294      -0.57512013       0.34118767
8
Lattice="5.4504 0.0 0.0 0.0 5.4504 0.0 0.0 0.0 5.4504" Properties=species:S:1:pos:R:3:momenta:R:3 time_fs=820.0 temperature_K=102.61633825459803 pbc="T T T"
Si      -0.04649062       0.00217828      -0.07456118      -0.55796068      -0.05791704       0.39470079
Si       1.38036734       1.32000056       1.27175077      -0.16039503       0.72144431       0.94969958
Si       0.00667079       2.59063916       2.67557090      -0.82125882       0.82923459      -0.09538658
Si       1.37738521       4.01719645       4.08762880      -0.10188633      -0.38690934      -0.23430159
Si       2.71025108      -0.00055980       2.76746580       0.43661919      -0.05292031      -0.59799787
Si       4.01188587       1.41901168       4.09698640       0.79891898       0.26406126      -0.26249096
Si       2.71356116       2.86634184       0.06958448       0.31144085      -0.51569672      -0.30276542
Si       4.19756943       4.13639176       1.45677406       0.09452198      -0.80129680       0.14854220
8
Lattice="5.4504 0.0 0.0 0.0 5.4504 0.0 0.0 0.0 5.4504" Properties=species:S:1:pos:R:3:momenta:R:3 time_fs=830.0 temperature_K=151.6439369814859 pbc="T T T"
Si      -0.05825884      -0.00140042      -0.05984408      -0.07369300      -0.13700090       0.45394889
Si       1.37675787       1.34282690       1.30686720      -0.06671264       0.55733559       1.01176395
Si      -0.01423602       2.62781250       2.68050723      -0.32489997       1.23587665       0.38119953
Si       1.36041985       4.01274866       4.07105286      -0.79606736       0.14876802      -0.65117328
Si       2.72423701      -0.00271493       2.74201158       0.34970870      -0.06527676      -0.79614408
Si       4.03793667       1.42723934       4.09290122       0.65378039       0.15611539       0.01742420
Si       2.73539283       2.83515072       0.06328163       0.86361450      -1.21773268      -0.09427728
Si       4.18895088       4.10953716       1.45442240      -0.60573047      -0.67808536      -0.32274181
8
Lattice="5.4504 0.0 0.0 0.0 5.4504 0.0 0.0 0.0 5.4504" Properties=species:S:1:pos:R:3:momenta:R:3 time_fs=840.0 temperature_K=192.40166248731651 pbc="T T T"
Si      -0.05057639      -0.00634749      -0.04240851       0.50328431      -0.12739130       0.54561325
Si       1.37432410       1.35798999       1.33988816      -0.08839291       0.30756251       0.84846823
Si      -0.01530210       2.67278937       2.70082555       0.23009865       1.27980565       0.73478850
Si       1.32934014       4.02737419       4.04816135      -0.85205559       0.67425004      -0.56178240
Si       2.73378864      -0.00457091       2.71608270       0.18394623      -0.03152356      -0.63001142
Si       4.05672143       1.42643070       4.09647097       0.43249575      -0.24643300       0.15065836
Si       2.76660460       2.78602817       0.05925089       0.80053601      -1.51475302      -0.19077650
Si       4.15629983       4.09150592       1.43292894      -1.20991233      -0.34151735      -0.89695790
8
Lattice="5.4504 0.0 0.0 0.0 5.4504 0.0 0.0 0.0 5.4504" Properties=species:S:1:pos:R:3:momenta:R:3 time_fs=850.0 temperature_K=192.1765474449386 pbc="T T T"
Si      -0.02523678      -0.00907140      -0.02170359       0.89701135      -0.01361035       0.63657175
Si       1.36991110       1.36494342       1.36507622      -0.16726870       0.10847789       0.58787220
Si      -0.00298489       2.71415949       2.72734572       0.38520289       1.05262054       0.70811187
Si       1.30926579       4.05868904       4.03750112      -0.19791552       1.09012335       0.01039748
Si       2.73648273      -0.00436501       2.70095974      -0.03255772       0.04788111      -0.20974073
Si       4.07028368       1.40800492       4.10064930       0.38309152      -0.81539340       0.05058809
Si       2.78381012       2.73397542       0.04715014       0.09984828      -1.40522282      -0.52417351
Si       4.10966852       4.08486406       1.39422140      -1.36741197      -0.06487637      -1.25962702
8
Lattice="5.4504 0.0 0.0 0.0 5.4504 0.0 0.0 0.0 5.4504" Properties=species:S:1:pos:R:3:momenta:R:3 time_fs=860.0 temperature_K=211.92461707996796 pbc="T T T"
Si       0.00810863      -0.00674849       0.00194915       0.94724838       0.14614756       0.71224505
Si       1.36272115       1.36727970       1.38158743      -0.23871033       0.05321988       0.37559319
Si       0.00616791       2.74527549       2.74627576       0.08580559       0.73037296       0.34234422
Si       1.31919111       4.10048223       4.05042997       0.76603512       1.23096035       0.71286462
Si       2.73206408      -0.00127812       2.70149602      -0.20001513       0.12307630       0.21716032
Si       4.08607360       1.37058613       4.09831595       0.54482162      -1.28053007      -0.19008561
Si       2.77070874       2.69070981       0.02200406      -0.84277725      -1.04098623      -0.91098764
Si       4.06616505       4.08489318       1.34914172      -1.06240789       0.03773919      -1.25913401
8
Lattice="5.4504 0.0 0.0 0.0 5.4504 0.0 0.0 0.0 5.4504" Properties=species:S:1:pos:R:3:momenta:R:3 time_fs=870.0 temperature_K=238.20068435111406 pbc="T T T"
Si       0.03707824       0.00044325       0.02764152       0.66407583       0.24427350       0.74543362
Si       1.35373260       1.37060902       1.39317834      -0.26642578       0.16312819       0.31746499
Si       0.00186083       2.76679693       2.75124934      -0.31760156       0.53456508      -0.03294897
Si       1.35931079       4.13901702       4.08412591       1.43254689       0.88981166       1.14531131
Si       2.72456637       0.00361323       2.71302011      -0.19298919       0.14545268       0.38096288
Si       4.10880788       1.32305038       4.08818984       0.74290049      -1.35441702      -0.36339880
Si       2.72855888       2.66201501      -0.01568005      -1.47252566      -0.60398198      -1.21857269
Si       4.03728469       4.08565510       1.30947505      -0.58998092      -0.01883215      -0.97425222
8
Lattice="5.4504 0.0 0.0 0.0 5.4504 0.0 0.0 0.0 5.4504" Properties=species:S:1:pos:R:3:momenta:R:3 time_fs=880.0 temperature_K=179.19244209280896 pbc="T T T"
Si       0.05264992       0.00834124       0.05296299       0.21903792       0.17569941       0.68356754
Si       1.34473440       1.38014265       1.40564064      -0.23903423       0.39540873       0.41264249
Si      -0.01379346       2.78497217       2.74660204      -0.53585546       0.52958875      -0.18967947
Si       1.41075220       4.15891737       4.12504308       1.37178429       0.23612070       1.11106887
Si       2.72090042       0.00804220       2.72373311       0.00925144       0.09512406       0.17615426
Si       4.13635008       1.28183380       4.07492844       0.79985716      -0.92422670      -0.36790143
Si       2.67616748       2.64687662      -0.06023076      -1.38776319      -0.30563203      -1.26647833
Si       4.02343925       4.08207388       1.28252054      -0.23727783      -0.20208295      -0.55937381
8
Lattice="5.4504 0.0 0.0 0.0 5.4504 0.0 0.0 0.0 5.4504" Properties=species:S:1:pos:R:3:momenta:R:3 time_fs=890.0 temperature_K=76.40055218124289 pbc="T T T"
Si       0.05317407       0.01093699       0.07426735      -0.16327088      -0.04150318       0.52241663
Si       1.33750429       1.39841408       1.42226982      -0.17003359       0.63782358       0.52651879
Si      -0.03261623       2.80466923       2.74087940      -0.49904042       0.59685687      -0.10058555
Si       1.44638664       4.15792915       4.15608353       0.56341454      -0.22371546       0.58770340
Si       2.72609110       0.00947705       2.72294860       0.28578338      -0.02136098      -0.22975892
Si       4.16240041       1.26238411       4.06375499       0.65741479      -0.15817294      -0.26127133
Si       2.64033462       2.63640241      -0.09903911      -0.55824147      -0.35941028      -0.87542391
Si       4.01792538       4.07098692       1.27003549      -0.11602625      -0.43051766      -0.16959902
8
Lattice="5.4504 0.0 0.0 0.0 5.4504 0.0 0.0 0.0 5.4504" Properties=species:S:1:pos:R:3:momenta:R:3 time_fs=900.0 temperature_K=72.82020804947419 pbc="T T T"
Si       0.04343548       0.00559664       0.08910364      -0.36176380      -0.24521483       0.32520453
Si       1.33298266       1.42289045       1.44084408      -0.08756618       0.72139791       0.50478309
Si      -0.04626963       2.82618537       2.74144997      -0.25617441       0.62026100       0.14716414
Si       1.44641633       4.14811037       4.16252014      -0.55624642      -0.29043867      -0.23533287
Si       2.73988043       0.00640578       2.70877870       0.47745964      -0.14820690      -0.54419055
Si       4.18047254       1.27057163       4.05687469       0.35751953       0.59102205      -0.13329065
Si       2.64096663       2.61879559      -0.11747141       0.59050497      -0.64738468      -0.15367649
Si       4.01331585       4.05264410       1.26910027      -0.16373325      -0.60143594       0.08933890
8
Lattice="5.4504 0.0 0.0 0.0 5.4504 0.0 0.0 0.0 5.4504" Properties=species:S:1:pos:R:3:momenta:R:3 time_fs=910.0 temperature_K=140.3379281458147 pbc="T T T"
Si       0.02967485      -0.00414541       0.09704269      -0.40690248      -0.27654628       0.12831685
Si       1.33149078       1.44557082       1.45540911       0.00496431       0.52657881       0.30032272
Si      -0.04969793       2.84678555       2.75091080       0.05631094       0.53272905       0.37035829
Si       1.41204487       4.13849612       4.14162609      -1.29389872      -0.27052615      -0.89089104
Si       2.75715989       0.00014392       2.68820953       0.47133846      -0.18797125      -0.57883496
Si       4.18700105       1.29937390       4.05417084       0.02396456       0.97242483      -0.02804064
Si       2.67707929       2.59451642      -0.11063612       1.35755662      -0.65648628       0.50311824
Si       4.00644748       4.03045861       1.27446713      -0.21333359      -0.64020281       0.19565065
8
Lattice="5.4504 0.0 0.0 0.0 5.4504 0.0 0.0 0.0 5.4504" Properties=species:S:1:pos:R:3:momenta:R:3 time_fs=920.0 temperature_K=114.22120760675011 pbc="T T T"
Si       0.01576349      -0.01155731       0.09788368      -0.38123988      -0.12496594      -0.08539138
Si       1.33345433       1.45680625       1.46040599       0.10639800       0.08602561      -0.02674577
Si      -0.04379710       2.86104176       2.76434289       0.24511052       0.23779465       0.33765888
Si       1.36553452       4.12864448       4.10665104      -1.22273092      -0.28395191      -1.00409807
Si       2.77009327      -0.00516377       2.67178873       0.23280214      -0.09704465      -0.31715278
Si       4.18356078       1.33235271       4.05415743      -0.19309717       0.82816755       0.01342290
Si       2.72614704       2.57899626      -0.08599691       1.30352409      -0.15867359       0.84847139
Si       4.00044397       4.01007954       1.28196723      -0.09076670      -0.48735179       0.23383495
8
Lattice="5.4504 0.0 0.0 0.0 5.4504 0.0 0.0 0.0 5.4504" Properties=species:S:1:pos:R:3:momenta:R:3 time_fs=930.0 temperature_K=51.29457407896915 pbc="T T T"
Si       0.00346850      -0.01217965       0.09064987      -0.31438861       0.08765194      -0.33348002
Si       1.33858106       1.45066137       1.45331864       0.17742156      -0.43457087      -0.37419762
Si      -0.03534724       2.86007001       2.77012977       0.20546004      -0.33533987      -0.05894989
Si       1.33498901       4.12043476       4.07826866      -0.43842593      -0.15440702      -0.53813479
Si       2.77177270      -0.00600219       2.66805185      -0.14602776       0.04780853       0.11638276
Si       4.17509871       1.35278906       4.05435124      -0.27946889       0.30449997      -0.00549465
Si       2.75981754       2.58609761      -0.05523588       0.53749713       0.56799123       0.85366108
Si       4.00282001       3.99932894       1.29166593       0.25793254      -0.08363399       0.34021323
8
Lattice="5.4504 0.0 0.0 0.0 5.4504 0.0 0.0 0.0 5.4504" Properties=species:S:1:pos:R:3:momenta:R:3 time_fs=940.0 temperature_K=119.2810187579374 pbc="T T T"
Si      -0.00561708      -0.00621507       0.07444279      -0.19555783       0.23461993      -0.59018123
Si       1.34501963       1.42757220       1.43490021       0.17779385      -0.85750563      -0.66576676
Si      -0.02995878       2.83626606       2.75883403       0.12477407      -1.01484907      -0.56752688
Si       1.33704337       4.11879277       4.07213985       0.52736129       0.04722878       0.18994521
Si       2.76041814      -0.00254064       2.67964882      -0.47948200       0.13390562       0.52730460
Si       4.16363776       1.35355762       4.05434450      -0.39558524      -0.22862610       0.02294951
Si       2.76132266       2.61709565      -0.03000207      -0.43469721       1.16317191       0.54619845
Si       4.01933460       4.00667132       1.30689195       0.67539315       0.52205447       0.53707718
8
Lattice="5.4504 0.0 0.0 0.0 5.4504 0.0 0.0 0.0 5.4504" Properties=species:S:1:pos:R:3:momenta:R:3 time_fs=950.0 temperature_K=246.7030474341007 pbc="T T T"
Si      -0.00959792       0.00261937       0.04995924      -0.02595738       0.24516679      -0.79656431
Si       1.35035609       1.39317752       1.40776641       0.12396005      -1.06776354      -0.87030916
Si      -0.02370741       2.79174318       2.73407434       0.27883839      -1.47411931      -0.77599219
Si       1.36633572       4.12126263       4.08893958       1.03060460       0.04850738       0.70115162
Si       2.74066352       0.00221126       2.70274258      -0.60886647       0.12363536       0.75213212
Si       4.14567798       1.34074221       4.05734674      -0.65457186      -0.43061127       0.16500491
Si       2.73375843       2.66406080      -0.01832606      -1.04095202       1.46817033       0.13454171
Si       4.04771389       4.03538293       1.32869726       0.89694482       1.08701416       0.69003538
8
Lattice="5.4504 0.0 0.0 0.0 5.4504 0.0 0.0 0.0 5.4504" Properties=species:S:1:pos:R:3:momenta:R:3 time_fs=960.0 temperature_K=253.94517268002886 pbc="T T T"
Si      -0.00745670       0.00919559       0.01982044       0.13998063       0.10848180      -0.91080049
Si       1.35406024       1.35584538       1.37511241       0.10166243      -1.02576423      -0.98024881
Si      -0.00849890       2.73760510       2.70940900       0.59254582      -1.55606275      -0.57741740
Si       1.40004704       4.11985771       4.11512759       0.76763033      -0.14150341       0.69876441
Si       2.72056521       0.00539051       2.72910461      -0.50907703       0.05197796       0.71018074
Si       4.11710739       1.32883490       4.06639228      -0.97335865      -0.17680333       0.35061168
Si       2.69695909       2.71552963      -0.01730728      -0.93391560       1.40617394      -0.00062143
Si       4.07841694       4.07894108       1.35354105       0.81453218       1.33349992       0.70953137
8
Lattice="5.4504 0.0 0.0 0.0 5.4504 0.0 0.0 0.0 5.4504" Properties=species:S:1:pos:R:3:momenta:R:3 time_fs=970.0 temperature_K=171.64222889451813 pbc="T T T"
Si      -0.00118644       0.00927254      -0.01273018       0.18662483      -0.10550681      -0.93640038
Si       1.35879669       1.32394939       1.34054562       0.19049887      -0.76891960      -0.97417885
Si       0.01602304       2.68719135       2.69628696       0.76469278      -1.27135780      -0.15601797
Si       1.41265999       4.11162853       4.13118525      -0.11309583      -0.32051504       0.13903728
Si       2.70633603       0.00574484       2.74971653      -0.29879938      -0.02878782       0.43983759
Si       4.07924680       1.33235146       4.08132601      -1.15253800       0.41120956       0.49179448
Si       2.67641700       2.75767839      -0.01247126      -0.15729346       0.95076571       0.35250442
Si       4.10290721       4.12338341       1.37734117       0.57991027       1.13311168       0.64342350
8
Lattice="5.4504 0.0 0.0 0.0 5.4504 0.0 0.0 0.0 5.4504" Properties=species:S:1:pos:R:3:momenta:R:3 time_fs=980.0 temperature_K=162.57803087585572 pbc="T T T"
Si       0.00277868       0.00275086      -0.04457623      -0.00308071      -0.24088995      -0.86501616
Si       1.36843319       1.30337273       1.30866519       0.36366413      -0.40022573      -0.82286974
Si       0.04128225       2.65163155       2.69830377       0.62612276      -0.73789112       0.24882176
Si       1.39156695       4.09710781       4.12187115      -1.03846597      -0.53238564      -0.66759774
Si       2.69943199       0.00387736       2.75887981      -0.10581663      -0.06675013       0.08569281
Si       4.03990847       1.35768566       4.09968135      -1.04232876       1.00575489       0.53540984
Si       2.68804746       2.78094435       0.01010209       0.79158673       0.40903230       0.93294136
Si       4.11975133       4.15382960       1.39827298       0.40831856       0.56335528       0.55261795
8
Lattice="5.4504 0.0 0.0 0.0 5.4504 0.0 0.0 0.0 5.4504" Properties=species:S:1:pos:R:3:momenta:R:3 time_fs=990.0 temperature_K=192.3722847518911 pbc="T T T"
Si      -0.00370390      -0.00533327      -0.07171157      -0.38262642      -0.19012530      -0.66543280
Si       1.38346296       1.29573887       1.28462880       0.47136552      -0.04840972      -0.53323684
Si       0.05657782       2.63552374       2.71084642       0.21093970      -0.21133284       0.41101757
Si       1.34726014       4.07276449       4.08803804      -1.36022910      -0.86443297      -1.17723559
Si       2.69804842       0.00191225       2.75688480       0.01306671      -0.03562519      -0.17076058
Si       4.00991251       1.39855165       4.11674845      -0.63030495       1.25153896       0.40662589
Si       2.72605667       2.79062309       0.04966699       1.26478402       0.22024562       1.25833141
Si       4.13358570       4.16141908       1.41609819       0.41300464      -0.12185866       0.47069104
8
Lattice="5.4504 0.0 0.0 0.0 5.4504 0.0 0.0 0.0 5.4504" Properties=species:S:1:pos:R:3:momenta:R:3 time_fs=1000.0 temperature_K=142.54312539675274 pbc="T T T"
Si      -0.02327868      -0.00906712      -0.09003064      -0.70167181      -0.01560548      -0.37385823
Si       1.39906615       1.29878315       1.27211917       0.38275880       0.20205087      -0.18025701
Si       0.05422770       2.63318934       2.72232410      -0.35640382       0.00785107       0.17466871
Si       1.30580621       4.03897750       4.04720679      -0.89249737      -0.99577847      -1.04001898
Si       2.69955724       0.00167750       2.74928528       0.06599164       0.01906661      -0.23044997
Si       3.99757542       1.43945780       4.12594086      -0.07279273       1.01160056       0.09729032
Si       2.76802023       2.80048910       0.09268143       1.02407817       0.37517174       1.12336869
Si       4.15022604       4.14769263       1.43167311       0.55053724      -0.60435699       0.42925655
8
Lattice="5.4504 0.0 0.0 0.0 5.4504 0.0 0.0 0.0 5.4504" Properties=species:S:1:pos:R:3:momenta:R:3 time_fs=1010.0 temperature_K=70.46921488881162 pbc="T T T"
Si      -0.04910378      -0.00686038      -0.09774054      -0.71111610       0.12492281      -0.06946258
Si       1.40780900       1.30838966       1.27151847       0.08976286       0.32554859       0.13061359
Si       0.03267052       2.63143813       2.71938998      -0.82809700      -0.15476624      -0.36281841
Si       1.29052184       4.00905178       4.02237086       0.05334532      -0.64093566      -0.31098972
Si       2.70253588       0.00262793       2.74263707       0.10725403       0.02363080      -0.13126932
Si       4.00312226       1.46531410       4.12330816       0.34143128       0.43187122      -0.23083023
Si       2.79190320       2.81683866       0.12321236       0.29194298       0.53309249       0.55989565
Si       4.17174140       4.12440001       1.44650374       0.65547674      -0.64336412       0.41486107
8
Lattice="5.4504 0.0 0.0 0.0 5.4504 0.0 0.0 0.0 5.4504" Properties=species:S:1:pos:R:3:momenta:R:3 time_fs=1020.0 temperature_K=72.44069347168677 pbc="T T T"
Si      -0.06857668      -0.00177570      -0.09514976      -0.34546494       0.14487281       0.21298834
Si       1.40433000       1.32001899       1.27978292      -0.28735141       0.31725105       0.31702312
Si       0.00209272       2.62154404       2.69870245      -0.81310073      -0.38846741      -0.75207096
Si       1.30813958       3.99688447       4.02677719       0.88244224      -0.05266104       0.53053660
Si       2.70739187       0.00266764       2.74071440       0.17417960      -0.02691891       0.02052835
Si       4.01711991       1.46876540       4.11209214       0.39343534      -0.22745811      -0.36798562
Si       2.78764894       2.83506290       0.12893473      -0.50767503       0.46658577      -0.24517135
Si       4.19305398       4.10803216       1.45934603       0.50353505      -0.23320426       0.28415156
8
Lattice="5.4504 0.0 0.0 0.0 5.4504 0.0 0.0 0.0 5.4504" Properties=species:S:1:pos:R:3:momenta:R:3 time_fs=1030.0 temperature_K=106.72379659185597 pbc="T T T"
Si      -0.07040123       0.00212570      -0.08334509       0.26245731       0.06807806       0.45003056
Si       1.38910070       1.32912014       1.29189530      -0.54520854       0.18473065       0.35065740
Si      -0.01739988       2.60742808       2.67305963      -0.23730719      -0.35819460      -0.61936415
Si       1.34497353       4.00404222       4.05450678       1.10235550       0.43639561       0.95699612
Si       2.71459806       0.00070720       2.74343113       0.22842603      -0.08092644       0.11860883
Si       4.02702447       1.45100220       4.10041022       0.14344553      -0.75160916      -0.26729701
Si       2.76071379       2.84670866       0.10781487      -0.94268716       0.16105130      -0.90028741
Si       4.20259089       4.11006568       1.46342726      -0.01148134       0.34047448      -0.08934429
8
Lattice="5.4504 0.0 0.0 0.0 5.4504 0.0 0.0 0.0 5.4504" Properties=species:S:1:pos:R:3:momenta:R:3 time_fs=1040.0 temperature_K=126.46607054091257 pbc="T T T"
Si      -0.05044029       0.00281471      -0.06496265       0.84989558      -0.02335019       0.57683442
Si       1.36980404       1.33205810       1.30289595      -0.49858828      -0.02075663       0.26593659
Si      -0.01373984       2.60116469       2.66085385       0.40736262       0.06770944      -0.02378622
Si       1.37720395       4.02603814       4.08635735       0.64406861       0.80580290       0.76359759
Si       2.72211521      -0.00246798       2.74760846       0.17639677      -0.09080203       0.09826887
Si       4.02716140       1.41940968       4.09480072      -0.10636152      -1.00237694      -0.04485476
Si       2.72870520       2.84363719       0.07198156      -0.79140836      -0.37338637      -1.05326383
Si       4.19039065       4.12854536       1.45166488      -0.68136532       0.63715972      -0.58273260
8
Lattice="5.4504 0.0 0.0 0.0 5.4504 0.0 0.0 0.0 5.4504" Properties=species:S:1:pos:R:3:momenta:R:3 time_fs=1050.0 temperature_K=161.70176459308675 pbc="T T T"
Si      -0.01470962       0.00124033      -0.04478947       1.11707722      -0.05371364       0.55361116
Si       1.35796941       1.32834863       1.31062768      -0.13971017      -0.16482039       0.19578626
Si       0.00630345       2.61589116       2.67308604       0.65700772       0.80329691       0.71434646
Si       1.38611817       4.05877107       4.10280599      -0.14110602       1.02414378       0.14171041
Si       2.72513182      -0.00490326       2.74883756      -0.02469812      -0.03845989      -0.04621867
Si       4.02304511       1.38447830       4.09721029      -0.06687934      -0.94948296       0.17336551
Si       2.71010878       2.81910691       0.03950923      -0.24265048      -1.02276914      -0.75907540
Si       4.15723322       4.14826674       1.42391280      -1.15904073       0.40180521      -0.97352568
8
Lattice="5.4504 0.0 0.0 0.0 5.4504 0.0 0.0 0.0 5.4504" Properties=species:S:1:pos:R:3:momenta:R:3 time_fs=1060.0 temperature_K=214.34411900628626 pbc="T T T"
Si       0.02167168      -0.00015391      -0.02716682       0.87828596      -0.01719222       0.45412992
Si       1.36088545       1.32345371       1.31909349       0.28969110      -0.06280557       0.33371388
Si       0.02696195       2.65680641       2.70782055       0.46029887       1.48937752       1.19684259
Si       1.37038384       4.09334477       4.09684184      -0.67287356       0.88065233      -0.43550825
Si       2.71995405      -0.00464075       2.74354129      -0.25929943       0.05651175      -0.26072938
Si       4.02668366       1.35533226       4.10566279       0.32492416      -0.69722289       0.28228735
Si       2.71073232       2.77501595       0.01920862       0.22734548      -1.42744620      -0.43040573
Si       4.11392740       4.15204145       1.38619835      -1.24837249      -0.22187482      -1.14033032
8
Lattice="5.4504 0.0 0.0 0.0 5.4504 0.0 0.0 0.0 5.4504" Properties=species:S:1:pos:R:3:momenta:R:3 time_fs=1070.0 temperature_K=210.62969569667527 pbc="T T T"
Si       0.04224720       0.00030775      -0.01216862       0.26515955       0.04189658       0.42520337
Si       1.37521814       1.32748552       1.33661562       0.46490535       0.33346857       0.68848597
Si       0.03483003       2.71457365       2.75010930      -0.05403743       1.71150465       1.11402727
Si       1.34627665       4.11651957       4.07736418      -0.59945907       0.42141324      -0.59058779
Si       2.70919704      -0.00120061       2.73106935      -0.30690285       0.12869319      -0.43418706
Si       4.04777984       1.33616259       4.11443521       0.88446656      -0.40313263       0.17804351
Si       2.72140358       2.72480354       0.00636825       0.31555523      -1.36933364      -0.35178302
Si       4.07424786       4.13254786       1.34740683      -0.96968725      -0.86451007      -1.02920219
8
Lattice="5.4504 0.0 0.0 0.0 5.4504 0.0 0.0 0.0 5.4504" Properties=species:S:1:pos:R:3:momenta:R:3 time_fs=1080.0 temperature_K=173.39171994460514 pbc="T T T"
Si       0.04059800       0.00227871       0.00431919      -0.31826520       0.05861280       0.54183587
Si       1.38826745       1.34825908       1.36687404       0.20863008       0.85483040       1.01270645
Si       0.02107131       2.76919922       2.77884397      -0.74157235       1.32013918       0.45281389
Si       1.33459295       4.12374841       4.06169985      -0.00940522       0.03015096      -0.22734547
Si       2.70240777       0.00304232       2.71503328      -0.02566697       0.09138591      -0.45167911
Si       4.08679122       1.32647445       4.11543951       1.29435238      -0.16224750      -0.15087936
Si       2.72907353       2.68305569      -0.00828915       0.08752946      -0.98562194      -0.51832123
Si       4.04839812       4.09514200       1.31727944      -0.49560207      -1.20724993      -0.65913101
8
Lattice="5.4504 0.0 0.0 0.0 5.4504 0.0 0.0 0.0 5.4504" Properties=species:S:1:pos:R:3:momenta:R:3 time_fs=1090.0 temperature_K=190.4344956830905 pbc="T T T"
Si       0.02443258       0.00345666       0.02695911      -0.53094967      -0.00315017       0.76002688
Si       1.38600565       1.38571849       1.40450758      -0.36484656       1.24209836       1.09100122
Si      -0.01502055       2.80309645       2.77956942      -1.24870201       0.60921656      -0.39076473
Si       1.34669562       4.12139060       4.06469605       0.66896381      -0.13494810       0.40401608
Si       2.71017405       0.00394090       2.70134122       0.48504359      -0.04825210      -0.31343429
Si       4.13349016       1.32397431       4.10286154       1.29727523       0.00375120      -0.56355170
Si       2.72648522       2.65658413      -0.03111340      -0.23039869      -0.53652056      -0.78609652
Si       4.03893761       4.05303833       1.30237861      -0.07638558      -1.13219530      -0.20119691
8
Lattice="5.4504 0.0 0.0 0.0 5.4504 0.0 0.0 0.0 5.4504" Properties=species:S:1:pos:R:3:momenta:R:3 time_fs=1100.0 temperature_K=197.86783915734506 pbc="T T T"
Si       0.00828832       0.00173959       0.05696618      -0.33646440      -0.09007437       0.93230271
Si       1.36351849       1.43067600       1.43987542      -0.87183778       1.24943559       0.88539343
Si      -0.05871839       2.81393367       2.75628444      -1.12523806       0.06734897      -0.83656624
Si       1.37636518       4.11568629       4.08742928       0.92980318      -0.17326704       0.82672917
Si       2.73523379       0.00010537       2.69354928       0.90231011      -0.15190791      -0.13543853
Si       4.17237769       1.32519024       4.07789942       0.86588534       0.03740784      -0.81580686
Si       2.71456342       2.64391548      -0.06166575      -0.41327553      -0.22365772      -0.91554262
Si       4.03957186       4.01995322       1.30086186       0.04881728      -0.71528548       0.05892898
8
Lattice="5.4504 0.0 0.0 0.0 5.4504 0.0 0.0 0.0 5.4504" Properties=species:S:1:pos:R:3:momenta:R:3 time_fs=1110.0 temperature_K=103.48511175301478 pbc="T T T"
Si       0.00333872      -0.00192194       0.08957453       0.06601219      -0.10057878       0.88499043
Si       1.33048896       1.46728740       1.46343843      -0.91878997       0.76372723       0.42239141
Si      -0.08628216       2.81233912       2.72888668      -0.38076381      -0.09319324      -0.62577588
Si       1.40490884       4.11110853       4.11675001       0.61781270      -0.05323723       0.76551700
Si       2.76854277      -0.00501363       2.69133230       0.91957605      -0.11739260      -0.00111974
Si       4.19152312       1.32452805       4.05009736       0.21910407      -0.10033601      -0.70523021
Si       2.70070887       2.63791615      -0.09096664      -0.33392975      -0.16540880      -0.69431559
Si       4.03797124       4.00495618       1.30208744      -0.18902132      -0.13358072      -0.04645740
8
Lattice="5.4504 0.0 0.0 0.0 5.4504 0.0 0.0 0.0 5.4504" Properties=species:S:1:pos:R:3:momenta:R:3 time_fs=1120.0 temperature_K=37.45130938347953 pbc="T T T"
Si       0.01227318      -0.00406438       0.11534355       0.41589959      -0.01008872       0.53952445
Si       1.30599167       1.47972674       1.46748506      -0.40146545      -0.08728311      -0.19912112
Si      -0.08406514       2.81141996       2.71774786       0.47703043       0.08517439       0.02501494
Si       1.41570517       4.11416516       4.13620469      -0.02094661       0.24443845       0.30317245
Si       2.79376396      -0.00696702       2.69274807       0.44770644       0.01281837       0.07100751
Si       4.18894958       1.31742626       4.03281224      -0.32348539      -0.29845021      -0.23804132
Si       2.69349390       2.62983556      -0.10650722      -0.06486196      -0.31363891      -0.16324357
Si       4.02508806       4.00965756       1.29536586      -0.52987688       0.36702961      -0.33831332
8
Lattice="5.4504 0.0 0.0 0.0 5.4504 0.0 0.0 0.0 5.4504" Properties=species:S:1:pos:R:3:momenta:R:3 time_fs=1130.0 temperature_K=97.83263869902918 pbc="T T T"
Si       0.02929812      -0.00255981       0.12452431       0.50024556       0.08570031      -0.04188288
Si       1.30555613       1.46153856       1.45101996       0.38065153      -0.90590796      -0.68917545
Si      -0.05723278       2.81960441       2.72997856       0.97761959       0.36820314       0.62175633
Si       1.40468364       4.12754286       4.13717603      -0.55709437       0.48618934      -0.22702034
Si       2.79614899      -0.00426332       2.69548667      -0.33524734       0.13202627       0.07421942
Si       4.17293410       1.30533276       4.03493301      -0.52769497      -0.35699547       0.35461317
Si       2.69552930       2.61670233      -0.10233998       0.15267471      -0.40059410       0.37341857
Si       4.00428287       4.02730205       1.28042155      -0.59115456       0.59137835      -0.46592880
8
Lattice="5.4504 0.0 0.0 0.0 5.4504 0.0 0.0 0.0 5.4504" Properties=species:S:1:pos:R:3:momenta:R:3 time_fs=1140.0 temperature_K=154.88918021198933 pbc="T T T"
Si       0.04310213       0.00070547       0.11173658       0.23546168       0.08144600      -0.67866980
Si       1.33016923       1.42182709       1.42441687       0.95803155      -1.26768686      -0.75303843
Si      -0.02140748       2.83375065       2.75547787       0.99122962       0.36452451       0.73621495
Si       1.38181470       4.14490227       4.12339317      -0.66819562       0.45740269      -0.50125313
Si       2.77126380       0.00129174       2.69744540      -1.03489471       0.16923648       0.03841579
Si       4.15596126       1.29509860       4.05550206      -0.40349750      -0.19368444       0.76790677
Si       2.70171423       2.60545884      -0.08361180       0.16835293      -0.18385595       0.64215268
Si       3.98858252       4.04816518       1.26683999      -0.24648780       0.57261746      -0.25172879
8
Lattice="5.4504 0.0 0.0 0.0 5.4504 0.0 0.0 0.0 5.4504" Properties=species:S:1:pos:R:3:momenta:R:3 time_fs=1150.0 temperature_K=128.98884941813267 pbc="T T T"
Si       0.04339977       0.00216965       0.07937716      -0.22672626      -0.00319049      -1.11609838
Si       1.36630384       1.37943217       1.40239089       1.00371717      -1.07376994      -0.48069464
Si       0.00724408       2.83936450       2.77484668       0.59277586      -0.11718494       0.29382627
Si       1.36312341       4.15667365       4.10642309      -0.34456222       0.18245928      -0.41401836
Si       2.72981465       0.00633583       2.69902669      -1.22139248       0.09998815       0.07560180
Si       4.14563181       1.29366560       4.08385711      -0.20030872       0.13132771       0.77642778
Si       2.70591157       2.60745872      -0.06099251       0.06608449       0.33759848       0.61052484
Si       3.98977126       4.06609972       1.26627101       0.33041231       0.44277164       0.25443071
8
Lattice="5.4504 0.0 0.0 0.0 5.4504 0.0 0.0 0.0 5.4504" Properties=species:S:1:pos:R:3:momenta:R:3 time_fs=1160.0 temperature_K=119.56102898349701 pbc="T T T"
Si       0.02858055       0.00061404       0.03853820      -0.57909087      -0.07971746      -1.14490185
Si       1.39321060       1.35106698       1.39015300       0.44957379      -0.51051488      -0.25573134
Si       0.01816319       2.82240706       2.77288194       0.03711905      -0.86209116      -0.41341969
Si       1.35944308       4.15566256       4.09701436       0.12366712      -0.26578542      -0.11017877
Si       2.69408087       0.00703837       2.70468817      -0.71674006      -0.07094594       0.27267248
Si       4.13968082       1.30521804       4.10475794      -0.18571167       0.53583420       0.36060491
Si       2.70681719       2.63047579      -0.04256939       0.00218892       0.97700550       0.43764609
Si       4.01122409       4.07871700       1.28573591       0.86899385       0.27621505       0.85330821
8
Lattice="5.4504 0.0 0.0 0.0 5.4504 0.0 0.0 0.0 5.4504" Properties=species:S:1:pos:R:3:momenta:R:3 time_fs=1170.0 temperature_K=205.08016694212384 pbc="T T T"
Si       0.00634271      -0.00292660       0.00359278      -0.64412577      -0.11500501      -0.81318077
Si       1.39463469       1.34416901       1.38148187      -0.36319109       0.08880315      -0.27851226
Si       0.01238677       2.78087370       2.74803514      -0.30762961      -1.45694194      -0.94550820
Si       1.36884797       4.13689848       4.09794899       0.34888154      -0.80824595       0.13056191
Si       2.68433832       0.00169675       2.71865955       0.17716957      -0.21228303       0.51377620
Si       4.12951329       1.33083150       4.10688787      -0.43137635       0.91003610      -0.23824069
Si       2.70758372       2.67407913      -0.02946457       0.06639329       1.46925562       0.34113368
Si       4.04755293       4.08557786       1.32405849       1.15387856       0.12438093       1.28997015
8
Lattice="5.4504 0.0 0.0 0.0 5.4504 0.0 0.0 0.0 5.4504" Properties=species:S:1:pos:R:3:momenta:R:3 time_fs=1180.0 temperature_K=273.79891897242175 pbc="T T T"
Si      -0.01396637      -0.00676991      -0.01751516      -0.49682086      -0.09373150      -0.40810466
Si       1.37160403       1.35331470       1.36883296      -0.85838001       0.35651333      -0.46170798
Si       0.00120647       2.72558910       2.71225940      -0.27267476      -1.62265964      -1.01414957
Si       1.37883980       4.10084262       4.10280321       0.15429154      -1.20186848       0.09018387
Si       2.70403312      -0.00553386       2.73856688       0.86807604      -0.16713039       0.58447785
Si       4.10829642       1.36649086       4.09053358      -0.77865537       1.08289063      -0.63164717
Si       2.71316484       2.72875393      -0.01589466       0.27497365       1.58113051       0.48105868
Si       4.08802209       4.08851239       1.37161392       1.10918989       0.06485544       1.35988899
8
Lattice="5.4504 0.0 0.0 0.0 5.4504 0.0 0.0 0.0 5.4504" Properties=species:S:1:pos:R:3:momenta:R:3 time_fs=1190.0 temperature_K=216.15431822545207 pbc="T T T"
Si      -0.02798233      -0.00876498      -0.02721546      -0.30941616      -0.01298149      -0.19043265
Si       1.34259857       1.36344297       1.34837233      -0.68186713       0.14908049      -0.71501508
Si      -0.00396784       2.67286100       2.68263091      -0.00659429      -1.32265231      -0.61517049
Si       1.37622998       4.05762731       4.10061090      -0.32580679      -1.19461737      -0.25238540
Si       2.73757596      -0.00843675       2.75679808       0.92989576       0.00723553       0.42324301
Si       4.07657267       1.40321831       4.06847041      -0.99763833       0.97324414      -0.54042863
Si       2.72764995       2.77949641       0.00683593       0.54833733       1.25707703       0.83893936
Si       4.12252343       4.09175555       1.41469703       0.84308973       0.14361386       1.05124991
8
Lattice="5.4504 0.0 0.0 0.0 5.4504 0.0 0.0 0.0 5.4504" Properties=species:S:1:pos:R:3:momenta:R:3 time_fs=1200.0 temperature_K=132.52401453116778 pbc="T T T"
Si      -0.03636484      -0.00758772      -0.03404979      -0.18453729       0.07484354      -0.24400888
Si       1.33063890       1.36028274       1.31919712       0.05986092      -0.34898102      -0.92965274
Si       0.00064399       2.63655144       2.67191418       0.25658497      -0.73057457       0.00839803
Si       1.35685287       4.02171516       4.08466416      -0.73674076      -0.81234903      -0.63254287
Si       2.76137744      -0.00569236       2.76633316       0.34279466       0.12999966       0.10577230
Si       4.04172321       1.43227270       4.05815366      -0.94718957       0.66692020       0.00639280
Si       2.74952877       2.81392482       0.04210017       0.65169149       0.69874540       1.13515120
Si       4.14680006       4.09973304       1.44288748       0.55753572       0.32139572       0.55049020
8
Lattice="5.4504 0.0 0.0 0.0 5.4504 0.0 0.0 0.0 5.4504" Properties=species:S:1:pos:R:3:momenta:R:3 time_fs=1210.0 temperature_K=120.8377478634436 pbc="T T T"
Si      -0.04181068      -0.00418480      -0.04658043      -0.13538759       0.10920399      -0.49077042
Si       1.34781472       1.33995670       1.28637344       0.88941529      -0.77355542      -0.88905697
Si       0.01256023       2.62105187       2.68112334       0.39935036      -0.19668147       0.45703775
Si       1.32950209       4.00283239       4.06022973      -0.74536755      -0.25176721      -0.68998511
Si       2.75804713      -0.00071480       2.76391393      -0.53994928       0.13944440      -0.23452602
Si       4.01316825       1.44897221       4.07048425      -0.65558727       0.28045308       0.68387898
Si       2.76895020       2.82906040       0.08173217       0.39840468       0.19412338       1.05615259
Si       4.16296846       4.11422583       1.45392371       0.38912149       0.49877916       0.10726928
8
Lattice="5.4504 0.0 0.0 0.0 5.4504 0.0 0.0 0.0 5.4504" Properties=species:S:1:pos:R:3:momenta:R:3 time_fs=1220.0 temperature_K=131.3058577155083 pbc="T T T"
Si      -0.04580462      -0.00049867      -0.06825201      -0.08258487       0.09707658      -0.72485793
Si       1.38780665       1.30983555       1.26091466       1.29357016      -0.89150398      -0.52509472
Si       0.02652271       2.61877041       2.69869896       0.36766225       0.00465820       0.47479452
Si       1.30995507       4.00444051       4.04156951      -0.31509895       0.33513864      -0.31584562
Si       2.72629076       0.00347388       2.75164662      -1.19581383       0.09586407      -0.42786064
Si       3.99695306       1.45157005       4.10252268      -0.27098892      -0.13250174       1.06975171
Si       2.77445184       2.83010028       0.11133536      -0.10050441      -0.08957446       0.58726294
Si       4.17502493       4.13350780       1.45276436       0.30375871       0.58084258      -0.13815017
8
Lattice="5.4504 0.0 0.0 0.0 5.4504 0.0 0.0 0.0 5.4504" Properties=species:S:1:pos:R:3:momenta:R:3 time_fs=1230.0 temperature_K=103.19971362762135 pbc="T T T"
Si      -0.04631792       0.00244168      -0.09421337       0.07528244       0.06941927      -0.69873230
Si       1.42997646       1.28142168       1.25070678       0.99470078      -0.68045948      -0.07105503
Si       0.03652437       2.61817583       2.71067017       0.19060693      -0.06108417       0.18441950
Si       1.30933399       4.02426131       4.04046195       0.27292282       0.74578232       0.25304230
Si       2.68199859       0.00559882       2.73740285      -1.21009564       0.01604783      -0.33283489
Si       3.99333649       1.44027119       4.13886489       0.03975817      -0.49312767       0.91295572
Si       2.76271403       2.82613002       0.12100028      -0.53463595      -0.09281879      -0.03769239
Si       4.18363440       4.15289927       1.44630657       0.17146056       0.49624057      -0.21010282
8
Lattice="5.4504 0.0 0.0 0.0 5.4504 0.0 0.0 0.0 5.4504" Properties=species:S:1:pos:R:3:momenta:R:3 time_fs=1240.0 temperature_K=58.29593892702529 pbc="T T T"
Si      -0.03932027       0.00419884      -0.11247624       0.33202178       0.02854045      -0.28223865
Si       1.45019444       1.26563717       1.25384886       0.09277734      -0.18114729       0.21483023
Si       0.03980537       2.61472917       2.71172385       0.00564353      -0.11155331      -0.10090225
Si       1.32651093       4.05165693       4.05713444       0.65093559       0.74114134       0.64519211
Si       2.65012687       0.00385983       2.73156766      -0.51188195      -0.12111118       0.02710096
Si       3.99759010       1.41938051       4.16071325       0.17123765      -0.65903167       0.27720232
Si       2.74062782       2.82566276       0.10983483      -0.66829490       0.07387921      -0.56796518
Si       4.18566516       4.16607459       1.43885349      -0.07243892       0.22928233      -0.21321945
8
Lattice="5.4504 0.0 0.0 0.0 5.4504 0.0 0.0 0.0 5.4504" Properties=species:S:1:pos:R:3:momenta:R:3 time_fs=1250.0 temperature_K=82.97249953575678 pbc="T T T"
Si      -0.02378849       0.00439677      -0.11080294       0.52776544      -0.01474915       0.39694478
Si       1.43527311       1.27041853       1.26413880      -0.90740188       0.45631764       0.37050849
Si       0.03764439       2.61280505       2.70597132      -0.12154021       0.04045420      -0.18953336
Si       1.35028131       4.07137037       4.08093522       0.64256012       0.34178914       0.64483503
Si       2.65013215      -0.00233693       2.73908888       0.51550805      -0.21113375       0.36734714
Si       4.00365225       1.39712924       4.15637141       0.16658255      -0.57655441      -0.51688745
Si       2.72008120       2.83001183       0.08435956      -0.45359849       0.13160269      -0.83647079
Si       4.17792450       4.16740495       1.43113790      -0.36987542      -0.16772648      -0.23674374
8
Lattice="5.4504 0.0 0.0 0.0 5.4504 0.0 0.0 0.0 5.4504" Properties=species:S:1:pos:R:3:momenta:R:3 time_fs=1260.0 temperature_K=160.95744502829146 pbc="T T T"
Si      -0.00536865       0.00347264      -0.08564188       0.47550569      -0.03435644       0.99766656
Si       1.39277622       1.29610020       1.28066940      -1.39991246       0.97269670       0.59437641
Si       0.03138994       2.62007063       2.70103457      -0.24139680       0.40598810      -0.05978506
Si       1.36757501       4.07487161       4.09778029       0.30560007      -0.11764728       0.26778858
Si       2.68263601      -0.00897097       2.75321320       1.24562268      -0.14405295       0.37072076
Si       4.01001270       1.38088135       4.12762523       0.22682466      -0.33656229      -1.05151502
Si       2.71166259       2.83079731       0.05499523      -0.00630715      -0.15093697      -0.79519441
Si       4.16051661       4.15397701       1.42152411      -0.60593654      -0.59512901      -0.32405772
8
Lattice="5.4504 0.0 0.0 0.0 5.4504 0.0 0.0 0.0 5.4504" Properties=species:S:1:pos:R:3:momenta:R:3 time_fs=1270.0 temperature_K=201.89143982066022 pbc="T T T"
Si       0.00638068       0.00201310      -0.04547743       0.16577630      -0.05185789       1.22529508
Si       1.34653534       1.33494481       1.30652187      -1.12187407       1.19151555       0.88160318
Si       0.02016638       2.64276560       2.70355707      -0.40798050       0.90249000       0.21892463
Si       1.37040643       4.06642054       4.09785576      -0.13504821      -0.30564876      -0.25864316
Si       2.72875993      -0.01174860       2.76056284       1.26216520      -0.02051705      -0.00034393
Si       4.02228159       1.37407778       4.08932080       0.51526692      -0.05494746      -1.03914089
Si       2.71940305       2.81577693       0.03095669       0.41827387      -0.73933860      -0.56873670
Si       4.13726705       4.12694963       1.40790255      -0.69657934      -0.92169593      -0.45895811
8
Lattice="5.4504 0.0 0.0 0.0 5.4504 0.0 0.0 0.0 5.4504" Properties=species:S:1:pos:R:3:momenta:R:3 time_fs=1280.0 temperature_K=212.5595953563929 pbc="T T T"
Si       0.00569501      -0.00028803      -0.00467060      -0.18858006      -0.07783687       1.05422206
Si       1.32056489       1.37539034       1.34113421      -0.31686183       1.06533677       1.07053294
Si       0.00280591       2.68274559       2.71628363      -0.57615040       1.35780251       0.48930669
Si       1.36057415       4.05757983       4.08233066      -0.37037424      -0.14814359      -0.56305462
Si       2.76319357      -0.01127237       2.75133674       0.62966792       0.03668065      -0.52743609
Si       4.04782366       1.37590626       4.06093436       0.94847565       0.12538576      -0.52411373
Si       2.73715180       2.77893053       0.01438379       0.52674523      -1.34098113      -0.40887761
Si       4.11339146       4.09220763       1.38946736      -0.65292211      -1.01824425      -0.59057956
8
Lattice="5.4504 0.0 0.0 0.0 5.4504 0.0 0.0 0.0 5.4504" Properties=species:S:1:pos:R:3:momenta:R:3 time_fs=1290.0 temperature_K=218.30217060812197 pbc="T T T"
Si      -0.00423189      -0.00290601       0.02593402      -0.32591162      -0.06009987       0.68334992
Si       1.32423179       1.40619043       1.37929551       0.47884668       0.66281000       1.08107253
Si      -0.01875225       2.73456363       2.73520057      -0.62672695       1.54272704       0.54399184
Si       1.34904820       4.05892467       4.06402244      -0.22505616       0.25439602      -0.40225309
Si       2.77061903      -0.00924255       2.72557088      -0.19048220       0.08781475      -0.89489731
Si       4.08698426       1.37921677       4.05427001       1.24409606       0.00033058       0.12804883
Si       2.75143622       2.72538070      -0.00005908       0.23190812      -1.65566188      -0.44731053
Si       4.09186509       4.05907214       1.36696580      -0.58667380      -0.83231680      -0.69200210
8
Lattice="5.4504 0.0 0.0 0.0 5.4504 0.0 0.0 0.0 5.4504" Properties=species:S:1:pos:R:3:momenta:R:3 time_fs=1300.0 temperature_K=198.3364017399809 pbc="T T T"
Si      -0.01300321      -0.00378678       0.04359627      -0.11839131       0.01424204       0.35077646
Si       1.34835467       1.42088368       1.41473400       0.79443413       0.18702655       0.91667934
Si      -0.03858800       2.78590096       2.75119489      -0.47152455       1.32806788       0.33871981
Si       1.34815039       4.07624773       4.05870145       0.19865586       0.72818486       0.13720121
Si       2.75354455      -0.00459452       2.69330377      -0.70202749       0.17668870      -0.87722560
Si       4.13077639       1.37201752       4.06663708       1.19810914      -0.44723105       0.50821404
Si       2.75085710       2.66818798      -0.01814948      -0.27658959      -1.54082205      -0.59234520
Si       4.07110858       4.03634320       1.34118218      -0.62266607      -0.44615707      -0.78201997
8
Lattice="5.4504 0.0 0.0 0.0 5.4504 0.0 0.0 0.0 5.4504" Properties=species:S:1:pos:R:3:momenta:R:3 time_fs=1310.0 temperature_K=156.36974782839744 pbc="T T T"
Si      -0.00936013      -0.00212968       0.05304034       0.35369099       0.07075958       0.23432509
Si       1.37213434       1.42140385       1.44131560       0.46461445      -0.11020802       0.57332021
Si      -0.04961041       2.82401578       2.75817358      -0.13725004       0.82204942       0.06973065
Si       1.36276589       4.10768586       4.07409806       0.60973599       1.01684913       0.71845879
Si       2.72839746       0.00199034       2.66907508      -0.63390583       0.17158298      -0.44837683
Si       4.16685354       1.34781217       4.08426379       0.81641406      -0.90447326       0.42111270
Si       2.73297302       2.62206808      -0.04124038      -0.71200645      -1.04845782      -0.71752639
Si       4.04704674       4.02835337       1.31247408      -0.76129301      -0.01810215      -0.85104413
8
Lattice="5.4504 0.0 0.0 0.0 5.4504 0.0 0.0 0.0 5.4504" Properties=species:S:1:pos:R:3:momenta:R:3 time_fs=1320.0 temperature_K=131.4013873105506 pbc="T T T"
Si       0.01176984       0.00031012       0.06295498       0.82523149       0.05863518       0.36485247
Si       1.37598691       1.41663121       1.45331249      -0.27174035      -0.12079414       0.10597981
Si      -0.04769790       2.84292257       2.75749238       0.23652873       0.27251141      -0.08410694
Si       1.38773439       4.14290411       4.10549884       0.76475546       0.92880269       1.00961524
Si       2.71505112       0.00551406       2.66453376      -0.07624170       0.01432312       0.19623985
Si       4.18546805       1.31263521       4.09175905       0.23180804      -1.03879153      -0.02990740
Si       2.70440436       2.59663734      -0.06723145      -0.86522750      -0.40382723      -0.74772666
Si       4.01848369       4.03364515       1.28288011      -0.84511402       0.28914032      -0.81494626
8
Lattice="5.4504 0.0 0.0 0.0 5.4504 0.0 0.0 0.0 5.4504" Properties=species:S:1:pos:R:3:momenta:R:3 time_fs=1330.0 temperature_K=123.38512609709588 pbc="T T T"
Si       0.04418943       0.00166160       0.07926853       0.94225990       0.01756931       0.55153578
Si       1.35478353       1.41455492       1.44981790      -0.86821853       0.00573751      -0.26829918
Si      -0.03498082       2.84500569       2.75380098       0.44859377      -0.11576285      -0.10944616
Si       1.41263923       4.16854751       4.13958285       0.61168055       0.49473369       0.86567848
Si       2.72369365       0.00329595       2.68092188       0.53434476      -0.11989628       0.68169573
Si       4.18368995       1.27978520       4.08184556      -0.29661569      -0.78016842      -0.50742349
Si       2.67639791       2.59238259      -0.09172743      -0.68342904       0.12108609      -0.62239509
Si       3.99078758       4.04596630       1.25768991      -0.68861558       0.37670080      -0.59134595
8
Lattice="5.4504 0.0 0.0 0.0 5.4504 0.0 0.0 0.0 5.4504" Properties=species:S:1:pos:R:3:momenta:R:3 time_fs=1340.0 temperature_K=67.91346683810355 pbc="T T T"
Si       0.07095806       0.00131205       0.09864642       0.49606950      -0.04470120       0.49680877
Si       1.32248106       1.41656029       1.43803104      -0.86106547       0.09837804      -0.35274061
Si      -0.01969000       2.83766769       2.75077966       0.37720943      -0.26405529      -0.05380789
Si       1.42775552       4.17610673       4.16157835       0.22194145      -0.05962975       0.34259238
Si       2.74749173      -0.00121954       2.70671175       0.73322623      -0.12237295       0.70553820
Si       4.16891086       1.26149138       4.06030383      -0.47313507      -0.22614174      -0.64641851
Si       2.65961545       2.60165958      -0.10850449      -0.24456358       0.35632639      -0.30536703
Si       3.97367780       4.05762156       1.24365361      -0.24968236       0.26219631      -0.18660519
8
Lattice="5.4504 0.0 0.0 0.0 5.4504 0.0 0.0 0.0 5.4504" Properties=species:S:1:pos:R:3:momenta:R:3 time_fs=1350.0 temperature_K=31.32775305195576 pbc="T T T"
Si       0.07436709      -0.00199505       0.10970762      -0.32723804      -0.14616489       0.08269633
Si       1.30176534       1.42063497       1.42803085      -0.24955534       0.11930715      -0.19563649
Si      -0.01131128       2.82880713       2.75033218       0.07753342      -0.22048003       0.02552068
Si       1.42680416       4.16579586       4.16162893      -0.28222799      -0.49847807      -0.34207430
Si       2.76855234      -0.00499336       2.72491742       0.39458989      -0.09614291       0.28065614
Si       4.15555208       1.26583249       4.04214562      -0.23799760       0.48195298      -0.32506213
Si       2.66046063       2.61419239      -0.11132829       0.29341355       0.33127630       0.15941769
Si       3.97501011       4.06292532       1.24576585       0.33148224       0.02872930       0.31448217
8
Lattice="5.4504 0.0 0.0 0.0 5.4504 0.0 0.0 0.0 5.4504" Properties=species:S:1:pos:R:3:momenta:R:3 time_fs=1360.0 temperature_K=124.3788593055758 pbc="T T T"
Si       0.04944595      -0.00805697       0.10225688      -1.03544012      -0.17405895      -0.51474960
Si       1.30707242       1.42330312       1.42447211       0.53563122       0.00356412      -0.02558240
Si      -0.01455339       2.82274399       2.75176352      -0.24527775      -0.13601063       0.03619572
Si       1.40882814       4.14357106       4.13937727      -0.71550324      -0.73991307      -0.87978008
Si       2.77211423      -0.00779099       2.72497764      -0.19525263      -0.05242178      -0.25920832
Si       4.15348443       1.29368035       4.04018549       0.09907940       1.05702063       0.21646091
Si       2.67895426       2.62442788      -0.09725540       0.73017599       0.27170266       0.63177321
Si       3.99585443       4.05932130       1.26542268       0.82658726      -0.22988316       0.79489067
8
Lattice="5.4504 0.0 0.0 0.0 5.4504 0.0 0.0 0.0 5.4504" Properties=species:S:1:pos:R:3:momenta:R:3 time_fs=1370.0 temperature_K=222.75740855798117 pbc="T T T"
Si       0.00815665      -0.01208070       0.07497405      -1.22285671      -0.03263363      -1.00592857
Si       1.33523052       1.41896975       1.42415394       0.98630250      -0.26910240      -0.03023382
Si      -0.02586085       2.81737968       2.75115337      -0.34807748      -0.21460135      -0.09521364
Si       1.37996720       4.11626908       4.10483939      -0.87730281      -0.78785365      -1.01708250
Si       2.75698843      -0.00757250       2.71017071      -0.61321351       0.07616543      -0.51746284
Si       4.15895770       1.33451953       4.05536138       0.14481845       1.19404265       0.59960922
Si       2.70832070       2.63557792      -0.06893711       0.89515413       0.40824597       0.95303127
Si       4.02944014       4.04813696       1.29948446       1.03517559      -0.37426319       1.11328096
8
Lattice="5.4504 0.0 0.0 0.0 5.4504 0.0 0.0 0.0 5.4504" Properties=species:S:1:pos:R:3:momenta:R:3 time_fs=1380.0 temperature_K=192.97709814171628 pbc="T T T"
Si      -0.02935416      -0.00996055       0.03567875      -0.84119624       0.13923610      -1.17691492
Si       1.36909067       1.40442684       1.41949614       0.85072218      -0.54585409      -0.27817426
Si      -0.03475620       2.80400389       2.74405823      -0.10240029      -0.60599695      -0.31259267
Si       1.35158159       4.09094912       4.07342058      -0.69117667      -0.62514937      -0.71680122
Si       2.73397659      -0.00274441       2.69410763      -0.63155143       0.17921945      -0.32603508
Si       4.15878261       1.37210809       4.07784596      -0.21581149       0.90171621       0.62319718
Si       2.73775974       2.65553921      -0.03318822       0.73745634       0.75866588       1.05399532
Si       4.06411964       4.03687753       1.33978112       0.89395777      -0.20183740       1.13332573
8
Lattice="5.4504 0.0 0.0 0.0 5.4504 0.0 0.0 0.0 5.4504" Properties=species:S:1:pos:R:3:momenta:R:3 time_fs=1390.0 temperature_K=151.07509722913176 pbc="T T T"
Si      -0.04694306      -0.00424069      -0.00292318      -0.14214038       0.15736992      -0.97545725
Si       1.38928647       1.38261220       1.40216868       0.25796900      -0.67449029      -0.73694880
Si      -0.02991636       2.77212178       2.73005681       0.40179209      -1.23214486      -0.46788851
Si       1.33448747       4.07434929       4.05756394      -0.26292507      -0.31289110      -0.17323563
Si       2.71696283       0.00294626       2.69159507      -0.30169795       0.11909819       0.22034524
Si       4.14091964       1.39555098       4.09526011      -0.82382995       0.43186099       0.33628637
Si       2.75701557       2.68924211       0.00236899       0.33374872       1.15889988       0.94826392
Si       4.08938794       4.03861778       1.37510977       0.53708374       0.35229711       0.84863474
8
Lattice="5.4504 0.0 0.0 0.0 5.4504 0.0 0.0 0.0 5.4504" Properties=species:S:1:pos:R:3:momenta:R:3 time_fs=1400.0 temperature_K=223.73104791077614 pbc="T T T"
Si      -0.04013180      -0.00034820      -0.03012324       0.48588249       0.05964800      -0.56910187
Si       1.38699990       1.35842953       1.36774137      -0.34550878      -0.70381938      -1.20957683
Si      -0.00720075       2.71942529       2.71290288       0.85743121      -1.71854786      -0.49041499
Si       1.33341478       4.06849680       4.06069355       0.18511733      -0.04819817       0.31946083
Si       2.71351671       0.00482141       2.70989973       0.08131932      -0.00446398       0.79676371
Si       4.10188239       1.40295137       4.10053226      -1.36784174       0.01307052      -0.02124101
Si       2.76000276       2.73472059       0.03136050      -0.16319910       1.39968276       0.69106340
Si       4.10271651       4.06270292       1.39819314       0.26679947       1.00262792       0.48304683
8
Lattice="5.4504 0.0 0.0 0.0 5.4504 0.0 0.0 0.0 5.4504" Properties=species:S:1:pos:R:3:momenta:R:3 time_fs=1410.0 temperature_K=261.81507132787226 pbc="T T T"
Si      -0.01803740       0.00031037      -0.04373844       0.68557591      -0.01220184      -0.24617616
Si       1.37056303       1.33323067       1.32072331      -0.49347780      -0.73649051      -1.41424224
Si       0.02552354       2.65819731       2.69743920       0.93351879      -1.67892343      -0.36741448
Si       1.34517084       4.06839138       4.07642214       0.44190556       0.00152350       0.51776123
Si       2.71925367       0.00383810       2.74312316       0.18163684      -0.03414728       1.01891747
Si       4.04998724       1.39878433       4.09625005      -1.50966525      -0.20554123      -0.17106665
Si       2.74687307       2.78362809       0.05017381      -0.55024091       1.34161293       0.39052395
Si       4.11186652       4.10481946       1.41080698       0.31074706       1.32416766       0.27169694
8
Lattice="5.4504 0.0 0.0 0.0 5.4504 0.0 0.0 0.0 5.4504" Properties=species:S:1:pos:R:3:momenta:R:3 time_fs=1420.0 temperature_K=146.02160598601085 pbc="T T T"
Si       0.00129453      -0.00082555      -0.05082059       0.33687589      -0.05318493      -0.21409601
Si       1.35937521       1.30797179       1.27406438      -0.06539413      -0.67653946      -1.17474976
Si       0.05278712       2.60852062       2.68892780       0.56554464      -1.08953683      -0.10153000
Si       1.36063900       4.06634481       4.09239771       0.38502035      -0.13909590       0.33429420
Si       2.72181675       0.00288041       2.77476051      -0.08503262      -0.02519952       0.70160453
Si       4.00298894       1.39236413       4.09257323      -1.08845122      -0.10442777       0.01442131
Si       2.72533584       2.82480770       0.06009105      -0.61338234       0.96425086       0.20974068
Si       4.12696314       4.14913579       1.41920612       0.56481963       1.12373333       0.23031509
8
Lattice="5.4504 0.0 0.0 0.0 5.4504 0.0 0.0 0.0 5.4504" Properties=species:S:1:pos:R:3:momenta:R:3 time_fs=1430.0 temperature_K=52.294408295665825 pbc="T T T"
Si       0.00191349      -0.00345976      -0.06184314      -0.31251646      -0.09310334      -0.44077929
Si       1.36887136       1.28846614       1.24334472       0.60178487      -0.40680214      -0.53205518
Si       0.06275720       2.58482544       2.69053317      -0.00131954      -0.25651752       0.17953343
Si       1.36837683       4.05820717       4.09652835       0.01545609      -0.32167158      -0.12447734
Si       2.71177268       0.00162413       2.78764322      -0.47747272      -0.04758666       0.00335882
Si       3.97816611       1.39449744       4.09961440      -0.30566488       0.24495799       0.39328173
Si       2.70878838       2.84861364       0.06741881      -0.27207453       0.38148736       0.24131464
Si       4.15055448       4.17842549       1.42796067       0.75180738       0.49923568       0.27982320
8
Lattice="5.4504 0.0 0.0 0.0 5.4504 0.0 0.0 0.0 5.4504" Properties=species:S:1:pos:R:3:momenta:R:3 time_fs=1440.0 temperature_K=97.75801070649962 pbc="T T T"
Si      -0.01827797      -0.00645332      -0.08123885      -0.77160297      -0.06110226      -0.63152009
Si       1.39757481       1.28060746       1.23815030       0.94232742      -0.04330767       0.22000233
Si       0.05393287       2.58920887       2.69960741      -0.46695571       0.46233528       0.30372724
Si       1.36042813       4.04460571       4.08384317      -0.46032350      -0.43983953      -0.56942538
Si       2.69154151       0.00012750       2.77564115      -0.60895758      -0.02551291      -0.64127660
Si       3.98053144       1.40868989       4.11817911       0.39003330       0.52976154       0.61324125
Si       2.70898645       2.85212256       0.07803394       0.29395724      -0.14815023       0.36021638
Si       4.17648330       4.18229103       1.43898398       0.68152203      -0.27418447       0.34503490
8
Lattice="5.4504 0.0 0.0 0.0 5.4504 0.0 0.0 0.0 5.4504" Properties=species:S:1:pos:R:3:momenta:R:3 time_fs=1450.0 temperature_K=129.14405834019624 pbc="T T T"
Si      -0.04589755      -0.00703902      -0.10197474      -0.71570160       0.02472295      -0.48502009
Si       1.42677430       1.28492744       1.25571313       0.61246829       0.28409282       0.72053903
Si       0.03330316       2.61268650       2.70928064      -0.66202093       0.80053195       0.21835165
Si       1.33886352       4.02904451       4.06047701      -0.70920288      -0.41854805      -0.69691757
Si       2.67461833       0.00012746       2.74808823      -0.28522424       0.01581224      -0.84155344
Si       4.00055682       1.42825981       4.13776351       0.67779204       0.54100390       0.43637933
Si       2.72802270       2.84151993       0.09096134       0.74869458      -0.40641348       0.34311683
Si       4.19495926       4.16167303       1.45089108       0.33319499      -0.84120258       0.30510429
8
Lattice="5.4504 0.0 0.0 0.0 5.4504 0.0 0.0 0.0 5.4504" Properties=species:S:1:pos:R:3:momenta:R:3 time_fs=1460.0 temperature_K=84.60220869034498 pbc="T T T"
Si      -0.06303484      -0.00569324      -0.11071780      -0.21213042       0.03450410       0.03413495
Si       1.43427945       1.30030966       1.28378857      -0.23166479       0.59221086       0.82278928
Si       0.01101935       2.63937728       2.71348164      -0.56822632       0.64914879       0.01503249
Si       1.31611021       4.01802670       4.04002282      -0.51420247      -0.17119243      -0.41049539
Si       2.67519373      -0.00012751       2.72295771       0.33944710      -0.05071102      -0.52329660
Si       4.02319269       1.44357645       4.14473519       0.56489497       0.29738003      -0.07406696
Si       2.75687664       2.82658637       0.09940776       0.82439515      -0.42238221       0.10477167
Si       4.19756332       4.12914396       1.45752430      -0.20251299      -0.92895836       0.03113059
8
Lattice="5.4504 0.0 0.0 0.0 5.4504 0.0 0.0 0.0 5.4504" Properties=species:S:1:pos:R:3:momenta:R:3 time_fs=1470.0 temperature_K=100.18914599165807 pbc="T T T"
Si      -0.05924210      -0.00532674      -0.09791336       0.41935519      -0.01139944       0.69425648
Si       1.41074422       1.32527640       1.31024871      -1.06004180       0.80242308       0.66797885
Si      -0.00407101       2.65473610       2.71079329      -0.27398909       0.22117792      -0.14976007
Si       1.30724912       4.01907602       4.03468252       0.04706060       0.24227789       0.12231419
Si       2.69721589      -0.00383377       2.71425338       0.86648593      -0.14796008       0.02902436
Si       4.03811312       1.44666479       4.13204060       0.28395877      -0.15195296      -0.62946801
Si       2.78020226       2.81239707       0.09630805       0.43588946      -0.39998316      -0.30333823
Si       4.18098906       4.10220978       1.45078702      -0.71871880      -0.55458346      -0.43100756
8
Lattice="5.4504 0.0 0.0 0.0 5.4504 0.0 0.0 0.0 5.4504" Properties=species:S:1:pos:R:3:momenta:R:3 time_fs=1480.0 temperature_K=185.2851473698586 pbc="T T T"
Si      -0.03620097      -0.00561014      -0.06427152       0.84226894       0.01260786       1.17612655
Si       1.36679506       1.35307482       1.33010996      -1.32861755       0.73118662       0.47219743
Si      -0.00803987       2.65754586       2.70496683       0.02733219       0.01865069      -0.14817925
Si       1.32006767       4.03426902       4.04791801       0.66549991       0.59870112       0.60108019
Si       2.73027500      -0.00861067       2.72302796       0.92967571      -0.09509370       0.42038763
Si       4.04424868       1.43148397       4.10410936       0.10234453      -0.72019105      -0.89779017
Si       2.78351609       2.79712753       0.07737844      -0.27547829      -0.49940693      -0.77818003
Si       4.15053892       4.09191925       1.42796117      -0.96302517      -0.04645483      -0.84564232
8
Lattice="5.4504 0.0 0.0 0.0 5.4504 0.0 0.0 0.0 5.4504" Properties=species:S:1:pos:R:3:momenta:R:3 time_fs=1490.0 temperature_K=218.63383741664677 pbc="T T T"
Si      -0.00479553      -0.00357768      -0.02039857       0.88840139       0.10624289       1.25589269
Si       1.32674982       1.37306551       1.34386604      -0.84623527       0.38080469       0.32842070
Si      -0.00470590       2.66262632       2.70306856       0.11824041       0.36126333       0.07515745
Si       1.35064881       4.05855724       4.07335210       1.01778090       0.75662275       0.79663862
Si       2.75597131      -0.00922183       2.73912286       0.46446332       0.06153834       0.42779848
Si       4.04851996       1.39779006       4.07477261       0.19534474      -1.15773174      -0.70002845
Si       2.76135651       2.77575269       0.04311936      -0.94872529      -0.74304284      -1.14501244
Si       4.11745559       4.09620732       1.39429725      -0.88926993       0.23430235      -1.03886702
8
Lattice="5.4504 0.0 0.0 0.0 5.4504 0.0 0.0 0.0 5.4504" Properties=species:S:1:pos:R:3:momenta:R:3 time_fs=1500.0 temperature_K=205.06355095920395 pbc="T T T"
Si       0.02203817       0.00115014       0.01850666       0.60507107       0.14577636       0.90889912
Si       1.31298984       1.37941832       1.35477619       0.08756674       0.00614894       0.33148874
Si      -0.00240756       2.68690594       2.71172067      -0.00898151       1.04498549       0.42100486
Si       1.38588255       4.08548441       4.09970420       0.91450479       0.76819426       0.65912382
Si       2.75955416      -0.00522577       2.74812260      -0.26948211       0.14715171       0.02911972
Si       4.06125395       1.35511478       4.05967606       0.56682316      -1.20989933      -0.12278547
Si       2.72235446       2.74430203       0.00085697      -1.18445047      -1.05947327      -1.21152179
Si       4.08953501       4.10404979       1.35783687      -0.71105139       0.15711560      -1.01532898
8
Lattice="5.4504 0.0 0.0 0.0 5.4504 0.0 0.0 0.0 5.4504" Properties=species:S:1:pos:R:3:momenta:R:3 time_fs=1510.0 temperature_K=213.40138293026 pbc="T T T"
Si       0.03613775       0.00531599       0.04082677       0.20361288       0.07760737       0.36634088
Si       1.33095006       1.37649744       1.36979930       0.85954488      -0.11963781       0.55899713
Si      -0.00551886       2.73394850       2.73112475      -0.15631695       1.58358862       0.65177237
Si       1.40946844       4.11159906       4.11682392       0.37943445       0.71408745       0.29970296
Si       2.73941425       0.00004089       2.73902428      -0.80725280       0.14692892      -0.54505114
Si       4.08871066       1.31749601       4.06634539       0.98003075      -0.89545095       0.46482748
Si       2.68543947       2.70218192      -0.03777489      -0.83753037      -1.32568308      -0.95575043
Si       4.06659883       4.10411981       1.32503068      -0.62152258      -0.18144078      -0.84083922
8
Lattice="5.4504 0.0 0.0 0.0 5.4504 0.0 0.0 0.0 5.4504" Properties=species:S:1:pos:R:3:momenta:R:3 time_fs=1520.0 temperature_K=196.3039774958504 pbc="T T T"
Si       0.03785123       0.00602581       0.04649393      -0.06831556      -0.03887265       0.02127900
Si       1.36500453       1.37472226       1.39433916       0.95017652       0.06713506       0.82090567
Si      -0.01218960       2.79196963       2.75431395      -0.21077588       1.64179373       0.63151967
Si       1.41100155       4.13421339       4.12076331      -0.27399595       0.55494874      -0.05363620
Si       2.71039946       0.00464615       2.71291498      -0.73090186       0.10407662      -0.87299301
Si       4.12626493       1.29443693       4.08700428       1.09830091      -0.40891389       0.61869535
Si       2.66801070       2.65454540      -0.06454383      -0.13330361      -1.33885398      -0.57559963
Si       4.04485781       4.09064005       1.29991443      -0.63118429      -0.58131385      -0.59017084
8
Lattice="5.4504 0.0 0.0 0.0 5.4504 0.0 0.0 0.0 5.4504" Properties=species:S:1:pos:R:3:momenta:R:3 time_fs=1530.0 temperature_K=117.41592565418044 pbc="T T T"
Si       0.03412178       0.00269723       0.04761175      -0.11211319      -0.14631885       0.11667079
Si       1.38842494       1.38404325       1.42396537       0.28859710       0.49297302       0.81516617
Si      -0.01983811       2.84254801       2.77266236      -0.22905459       1.17063473       0.38452113
Si       1.39388254       4.14876302       4.11531828      -0.62815724       0.25952709      -0.21980419
Si       2.69584342       0.00578738       2.68415704      -0.02395967      -0.06412653      -0.68470382
Si       4.16081966       1.28916960       4.10283974       0.82322868       0.10001043       0.20499882
Si       2.67535405       2.61305867      -0.07900704       0.50894223      -0.97224192      -0.27106890
Si       4.02259234       4.06513245       1.28365272      -0.62748305      -0.84045819      -0.34577997
8
Lattice="5.4504 0.0 0.0 0.0 5.4504 0.0 0.0 0.0 5.4504" Properties=species:S:1:pos:R:3:momenta:R:3 time_fs=1540.0 temperature_K=91.54442570288539 pbc="T T T"
Si       0.03109962      -0.00346612       0.05812830      -0.06331866      -0.18864285       0.50155750
Si       1.38203756       1.40919294       1.44799349      -0.63637191       0.90986271       0.52977453
Si      -0.02870807       2.86983137       2.77940103      -0.28581522       0.35969840      -0.01548924
Si       1.37293513       4.15192464       4.10790919      -0.49101929      -0.07351901      -0.17290288
Si       2.71047025      -0.00055779       2.66928238       0.82812648      -0.28335726      -0.14019965
Si       4.18176987       1.29972017       4.09802162       0.37153673       0.45962960      -0.48785737
Si       2.69890937       2.58968138      -0.08475839       0.75542470      -0.34069244      -0.07255351
Si       4.00268690       4.03487301       1.27522260      -0.47856256      -0.84297939      -0.14232936
8
Lattice="5.4504 0.0 0.0 0.0 5.4504 0.0 0.0 0.0 5.4504" Properties=species:S:1:pos:R:3:momenta:R:3 time_fs=1550.0 temperature_K=120.18711771215024 pbc="T T T"
Si       0.02868501      -0.00901497       0.08132731      -0.09420905      -0.10787510       0.77362924
Si       1.34893365       1.44293723       1.46033217      -1.14385843       0.92958895       0.17603361
Si      -0.03988813       2.86804844       2.77150030      -0.34356578      -0.42093480      -0.41913883
Si       1.36340268       4.14459548       4.10475197      -0.02828224      -0.32530081       0.00369191
Si       2.74818839      -0.01130393       2.67372541       1.21570742      -0.28012038       0.35894095
Si       4.18801114       1.31733263       4.07107953       0.01331122       0.48557179      -0.98146480
Si       2.72239462       2.58921804      -0.08498297       0.51329921       0.29083079       0.04685484
Si       3.99147328       4.00938667       1.27346649      -0.13240207      -0.57176068       0.04145309
8
Lattice="5.4504 0.0 0.0 0.0 5.4504 0.0 0.0 0.0 5.4504" Properties=species:S:1:pos:R:3:momenta:R:3 time_fs=1560.0 temperature_K=97.59401488190016 pbc="T T T"
Si       0.02348694      -0.01005129       0.10738899      -0.20860387       0.05313145       0.63818640
Si       1.31086503       1.46794179       1.46020599      -0.90869959       0.42224978      -0.18806009
Si      -0.05128413       2.84521039       2.75258829      -0.27948859      -0.79824891      -0.61089091
Si       1.37050496       4.13079090       4.10810383       0.39883589      -0.43804277       0.17506205
Si       2.78726227      -0.01730557       2.69101768       0.90936270      -0.04195156       0.57470335
Si       4.18444115       1.33017784       4.03607327      -0.19936206       0.21812482      -0.91005636
Si       2.73128852       2.60714056      -0.08236458      -0.02486618       0.68023170       0.09271106
Si       3.99463589       3.99729498       1.27818674       0.31282197      -0.09549474       0.22834453
8
Lattice="5.4504 0.0 0.0 0.0 5.4504 0.0 0.0 0.0 5.4504" Properties=species:S:1:pos:R:3:momenta:R:3 time_fs=1570.0 temperature_K=64.50824231989003 pbc="T T T"
Si       0.01445149      -0.00558413       0.12088358      -0.29377332       0.19073481       0.07226813
Si       1.29229624       1.46882872       1.44705607      -0.08927907      -0.39247216      -0.55562580
Si      -0.05723489       2.81781201       2.73261475      -0.02839999      -0.70895037      -0.48054235
Si       1.38742469       4.11601520       4.11541911       0.49979358      -0.37397723       0.21304735
Si       2.80583772      -0.01437356       2.71012134       0.09681097       0.18924599       0.46808278
Si       4.17490374       1.33220739       4.01458815      -0.33764083      -0.08363537      -0.23687831
Si       2.72166824       2.63293138      -0.07863557      -0.47815872       0.74325802       0.12984872
Si       4.01185342       4.00336258       1.28915279       0.63064766       0.43579614       0.38979953
8
Lattice="5.4504 0.0 0.0 0.0 5.4504 0.0 0.0 0.0 5.4504" Properties=species:S:1:pos:R:3:momenta:R:3 time_fs=1580.0 temperature_K=123.53082609726884 pbc="T T T"
Si       0.00428563       0.00213131       0.10966578      -0.26537364       0.23034759      -0.72668575
Si       1.30576832       1.44146697       1.42304051       0.82721517      -1.12573771      -0.77873195
Si      -0.05128764       2.79731971       2.72140044       0.38890195      -0.47393798      -0.14568193
Si       1.40060074       4.10682002       4.12073388       0.19130634      -0.12784387       0.06010210
Si       2.79276704      -0.00593245       2.72124716      -0.82148003       0.26769540       0.15099873
Si       4.16119473       1.32675189       4.02240292      -0.44597921      -0.18344430       0.67804732
Si       2.70265470       2.65638823      -0.07190617      -0.52846529       0.57448841       0.28022841
Si       4.03521715       4.02625390       1.30461568       0.65387497       0.83843227       0.48172310
8
Lattice="5.4504 0.0 0.0 0.0 5.4504 0.0 0.0 0.0 5.4504" Properties=species:S:1:pos:R:3:momenta:R:3 time_fs=1590.0 temperature_K=230.49477251248624 pbc="T T T"
Si      -0.00257548       0.00903090       0.07147386      -0.10704411       0.14223569      -1.40205117
Si       1.34502057       1.39484310       1.39545435       1.31146969      -1.45811764      -0.76705715
Si      -0.02972599       2.78221119       2.72207617       0.82797448      -0.43751084       0.16147779
Si       1.39793635       4.10751834       4.11817365      -0.35662417       0.15250524      -0.21238986
Si       2.75275624       0.00300827       2.72121209      -1.36819839       0.22915514      -0.12023334
Si       4.14316928       1.32256368       4.05824274      -0.60053166      -0.01361714       1.27559985
Si       2.68977564       2.67294167      -0.05762608      -0.15427455       0.39249008       0.54597717
Si       4.05484406       4.05908242       1.32219344       0.44722900       0.99285930       0.51867674
8
Lattice="5.4504 0.0 0.0 0.0 5.4504 0.0 0.0 0.0 5.4504" Properties=species:S:1:pos:R:3:momenta:R:3 time_fs=1600.0 temperature_K=243.66570316481383 pbc="T T T"
Si      -0.00234433       0.01074178       0.01742645       0.11996516      -0.05684425      -1.58602614
Si       1.38920227       1.34544131       1.37010959       1.09536988      -1.28250662      -0.69366288
Si       0.00392771       2.76367048       2.73018545       1.03761208      -0.65668029       0.25662406
Si       1.37706019       4.11489996       4.10660482      -0.78545964       0.21505443      -0.42556317
Si       2.70527950       0.00901611       2.71647092      -1.22367755       0.09593864      -0.08635713
Si       4.11802856       1.32815519       4.10347295      -0.84622922       0.35522870       1.18843172
Si       2.69348767       2.68661156      -0.03394759       0.35789357       0.44169923       0.79401960
Si       4.06655911       4.09266316       1.34087763       0.24452598       0.88810999       0.55253398
8
Lattice="5.4504 0.0 0.0 0.0 5.4504 0.0 0.0 0.0 5.4504" Properties=species:S:1:pos:R:3:momenta:R:3 time_fs=1610.0 temperature_K=173.85510804183028 pbc="T T T"
Si       0.00436973       0.00528275      -0.03258962       0.22029470      -0.23382829      -1.19215932
Si       1.41498262       1.31010615       1.34542752       0.32200929      -0.68978735      -0.73541338
Si       0.03804478       2.73485897       2.73678480       0.84179029      -0.99552100       0.07834515
Si       1.34804053       4.11837223       4.09034592      -0.79171698      -0.07408547      -0.47754501
Si       2.67426434       0.00868819       2.71924808      -0.48318779      -0.11809807       0.28305454
Si       4.08467526       1.34758386       4.13426794      -1.02744221       0.73538784       0.50278516
Si       2.71231516       2.70739357      -0.00339120       0.66265814       0.78693137       0.93275198
Si       4.07450827       4.11891384       1.36110677       0.25559484       0.58900080       0.60818092
8
Lattice="5.4504 0.0 0.0 0.0 5.4504 0.0 0.0 0.0 5.4504" Properties=species:S:1:pos:R:3:momenta:R:3 time_fs=1620.0 temperature_K=162.151252331078 pbc="T T T"
Si       0.00899036      -0.00325190      -0.06247290      -0.01634064      -0.21734828      -0.50306165
Si       1.41147825       1.29813900       1.31880175      -0.47352994      -0.01580789      -0.76302986
Si       0.05857966       2.69495623       2.73355726       0.28945593      -1.25488656      -0.27741442
Si       1.32679179       4.10673358       4.07477804      -0.37024784      -0.61274170      -0.39327976
Si       2.67269645       0.00187525       2.73632831       0.36115083      -0.23711179       0.65651833
Si       4.04965643       1.37691182       4.13682667      -0.91829459       0.89356843      -0.33787875
Si       2.73548276       2.74283801       0.02974070       0.60186285       1.22805440       0.93549857
Si       4.08752499       4.13299756       1.38364038       0.52594365       0.21627322       0.68264761
8
Lattice="5.4504 0.0 0.0 0.0 5.4504 0.0 0.0 0.0 5.4504" Properties=species:S:1:pos:R:3:momenta:R:3 time_fs=1630.0 temperature_K=199.07918401521937 pbc="T T T"
Si       0.00037600      -0.00818631      -0.06937440      -0.48813598      -0.05692143       0.05447243
Si       1.38778381       1.30588216       1.29453336      -0.77669239       0.40066750      -0.58916344
Si       0.05702477       2.65035916       2.71772558      -0.36973803      -1.23646479      -0.60358033
Si       1.32361658       4.07602989       4.06406494       0.17589860      -1.10589329      -0.20490166
Si       2.69479069      -0.00526470       2.76084204       0.81257060      -0.14125427       0.67180229
Si       4.02365693       1.40714597       4.11463506      -0.54068203       0.80576623      -0.84241268
Si       2.75118904       2.79040495       0.05985537       0.26872275       1.42488752       0.75228243
Si       4.11276289       4.13482844       1.40891828       0.91805673      -0.09078763       0.76150103
8
Lattice="5.4504 0.0 0.0 0.0 5.4504 0.0 0.0 0.0 5.4504" Properties=species:S:1:pos:R:3:momenta:R:3 time_fs=1640.0 temperature_K=173.61086198505615 pbc="T T T"
Si      -0.02368489      -0.00769048      -0.06343319      -0.83868391       0.07007926       0.21444693
Si       1.36407008       1.32204693       1.27911853      -0.49804008       0.46803104      -0.28670561
Si       0.03521782       2.61272586       2.69404268      -0.81546102      -0.86023279      -0.70208181
Si       1.33613011       4.03368766       4.06079744       0.47492519      -1.23582259       0.00932265
Si       2.72314824      -0.00723786       2.77867986       0.72558888       0.02073970       0.29630842
Si       4.01223761       1.43208593       4.08511268      -0.12765343       0.61108308      -0.73955733
Si       2.75398831       2.83702248       0.08048435      -0.08863128       1.16175716       0.41549182
Si       4.15009345       4.12855901       1.43639787       1.16795589      -0.23563502       0.79277499
8
Lattice="5.4504 0.0 0.0 0.0 5.4504 0.0 0.0 0.0 5.4504" Properties=species:S:1:pos:R:3:momenta:R:3 time_fs=1650.0 temperature_K=79.74999765717965 pbc="T T T"
Si      -0.05371212      -0.00437199      -0.05841871      -0.80403872       0.10686824       0.03386856
Si       1.35647552       1.33530282       1.27399697       0.08088277       0.25229810      -0.02144466
Si       0.00560095       2.59276281       2.67215715      -0.78678095      -0.26978991      -0.50076300
Si       1.35182993       3.99545410       4.06300121       0.35284881      -0.86969338       0.08067567
Si       2.74110356      -0.00506717       2.77961303       0.26185132       0.08279510      -0.24515883
Si       4.01250153       1.44926808       4.06906101       0.09959257       0.35976734      -0.11890021
Si       2.74778935       2.86711543       0.08953464      -0.21189349       0.51319066       0.12934578
Si       4.18961200       4.12073543       1.46225492       1.00753795      -0.17543631       0.64237675
8
Lattice="5.4504 0.0 0.0 0.0 5.4504 0.0 0.0 0.0 5.4504" Properties=species:S:1:pos:R:3:momenta:R:3 time_fs=1660.0 temperature_K=31.491426255106976 pbc="T T T"
Si      -0.07501151      -0.00089071      -0.06205430      -0.35340181       0.08420212      -0.23312622
Si       1.36862004       1.33806110       1.27641203       0.56881120      -0.10211908       0.14273552
Si      -0.01392686       2.59271674       2.66188020      -0.26511330       0.22898065      -0.05628600
Si       1.35709180       3.97730256       4.06404743      -0.08011241      -0.12808850      -0.04388565
Si       2.74064815      -0.00245660       2.76312082      -0.27381467       0.05988036      -0.65258160
Si       4.01614468       1.45625173       4.07811641       0.07113587       0.02575639       0.61225270
Si       2.74276524       2.87150805       0.09179553      -0.03726156      -0.25482968       0.02682885
Si       4.21486920       4.11870664       1.47788211       0.36975694       0.08621757       0.20406247
8
Lattice="5.4504 0.0 0.0 0.0 5.4504 0.0 0.0 0.0 5.4504" Properties=species:S:1:pos:R:3:momenta:R:3 time_fs=1670.0 temperature_K=93.58248671181963 pbc="T T T"
Si      -0.07553071       0.00104591      -0.07287930       0.34225881       0.02198496      -0.34587943
Si       1.39185165       1.32883872       1.28290005       0.68512913      -0.39851983       0.21385504
Si      -0.01107750       2.60570561       2.66915348       0.41137055       0.47436303       0.46408894
Si       1.34660595       3.98716697       4.05982402      -0.48044943       0.67102988      -0.17727359
Si       2.72435069      -0.00091548       2.73817002      -0.60849133       0.03045977      -0.70492060
Si       4.01594755       1.45051443       4.10749948      -0.08505145      -0.35455306       0.97528069
Si       2.74601492       2.85166917       0.09212189       0.20634986      -0.82179181      -0.01549695
Si       4.21303821       4.12717420       1.47441058      -0.47111588       0.37702689      -0.40965401
8
Lattice="5.4504 0.0 0.0 0.0 5.4504 0.0 0.0 0.0 5.4504" Properties=species:S:1:pos:R:3:momenta:R:3 time_fs=1680.0 temperature_K=161.56306373413096 pbc="T T T"
Si      -0.05175583       0.00070233      -0.08303541       0.97733708      -0.03353952      -0.18702639
Si       1.41142871       1.31305038       1.29050840       0.37017469      -0.45197964       0.21207439
Si       0.01096702       2.62405473       2.69214825       0.76422146       0.56000409       0.79936581
Si       1.32793487       4.02097287       4.05397010      -0.50803912       1.19409827      -0.12031912
Si       2.70199768      -0.00025548       2.71846294      -0.61167288       0.00638105      -0.36499980
Si       4.01142380       1.43178504       4.13920308      -0.13860303      -0.70706185       0.73863806
Si       2.75444212       2.81892030       0.08948123       0.22134349      -0.97746082      -0.15713172
Si       4.18476240       4.14196935       1.45046165      -1.07476141       0.40955824      -0.92060112
8
Lattice="5.4504 0.0 0.0 0.0 5.4504 0.0 0.0 0.0 5.4504" Properties=species:S:1:pos:R:3:momenta:R:3 time_fs=1690.0 temperature_K=155.83019859728785 pbc="T T T"
Si      -0.01188648      -0.00022982      -0.08297267       1.21206718      -0.00000753       0.22513240
Si       1.41474212       1.30103246       1.29771008      -0.19733223      -0.18370759       0.21191445
Si       0.03592123       2.64431846       2.72086301       0.57526603       0.59472068       0.78114741
Si       1.31644189       4.06512440       4.05333249      -0.08376914       1.24358935       0.09794040
Si       2.68518645      -0.00055110       2.71501919      -0.30795440      -0.02249525       0.17141270
Si       4.00930613       1.40203013       4.15387842       0.06232869      -0.97291437       0.05654020
Si       2.75777112       2.78755114       0.07979208      -0.07415646      -0.77529912      -0.41305192
Si       4.14371830       4.15192383       1.41357764      -1.18644939       0.11611364      -1.13103556
8
Lattice="5.4504 0.0 0.0 0.0 5.4504 0.0 0.0 0.0 5.4504" Properties=species:S:1:pos:R:3:momenta:R:3 time_fs=1700.0 temperature_K=148.95899917048334 pbc="T T T"
Si       0.02629945       0.00175742      -0.06601740       0.88199357       0.11745685       0.74051415
Si       1.39861306       1.30298423       1.30719540      -0.68252775       0.32053364       0.36908968
Si       0.04655576       2.66560159       2.74322843      -0.00752371       0.62639363       0.46211356
Si       1.32477269       4.10211592       4.06092123       0.56345939       0.80004293       0.32833115
Si       2.68225717      -0.00147709       2.72814503       0.14891122      -0.02205587       0.51258709
Si       4.01822151       1.36607299       4.14282584       0.46921288      -1.03639262      -0.65518601
Si       2.74768901       2.76569018       0.05960754      -0.50135963      -0.48692684      -0.75268579
Si       4.10679213       4.14845425       1.37529418      -0.87216569      -0.31905192      -1.00476376
8
Lattice="5.4504 0.0 0.0 0.0 5.4504 0.0 0.0 0.0 5.4504" Properties=species:S:1:pos:R:3:momenta:R:3 time_fs=1710.0 temperature_K=194.41386304734715 pbc="T T T"
Si       0.04544594       0.00707526      -0.03318954       0.18588636       0.15868284       1.08649057
Si       1.37115329       1.32399256       1.32621691      -0.82073623       0.86994320       0.74666292
Si       0.03462637       2.68885602       2.75203061      -0.65755012       0.71909379       0.04389788
Si       1.35335598       4.11799497       4.07551326       0.99997519       0.09889524       0.49218491
Si       2.69495857      -0.00163476       2.74492032       0.55135259       0.01442031       0.35682979
Si       4.04252081       1.33335159       4.11240356       0.91034116      -0.77867434      -1.00257765
Si       2.72450843       2.75129369       0.02700428      -0.77406511      -0.38096305      -1.09785773
Si       4.08463140       4.13027017       1.34630082      -0.39520356      -0.70139820      -0.62563060
8
Lattice="5.4504 0.0 0.0 0.0 5.4504 0.0 0.0 0.0 5.4504" Properties=species:S:1:pos:R:3:momenta:R:3 time_fs=1720.0 temperature_K=238.54767526316746 pbc="T T T"
Si       0.04023329       0.01073334       0.00598682      -0.43385415       0.02679920       1.10023171
Si       1.34536052       1.36170702       1.35963564      -0.60939142       1.23763762       1.13861553
Si       0.00345440       2.71705395       2.74774707      -1.06283121       0.90756540      -0.25202251
Si       1.38827701       4.11127294       4.09377842       0.89478165      -0.41307538       0.51600703
Si       2.71813427      -0.00085005       2.74819342       0.72766046       0.01943590      -0.20892077
Si       4.08014183       1.31463957       4.07850223       1.20112962      -0.26828152      -0.86235315
Si       2.69827644       2.73555580      -0.01463407      -0.64668344      -0.57027445      -1.22289257
Si       4.07732303       4.10108693       1.33199072      -0.07081123      -0.93980697      -0.20866515
8
Lattice="5.4504 0.0 0.0 0.0 5.4504 0.0 0.0 0.0 5.4504" Properties=species:S:1:pos:R:3:momenta:R:3 time_fs=1730.0 temperature_K=215.75227644685114 pbc="T T T"
Si       0.02013501       0.00837918       0.04116265      -0.63267584      -0.15300073       0.89110008
Si       1.33028842       1.40618990       1.40235336      -0.24412263       1.23494559       1.23625147
Si      -0.03450216       2.75274209       2.73775386      -1.02517539       1.12551978      -0.26343512
Si       1.40966835       4.09544690       4.10833546       0.26495553      -0.39671956       0.26987794
Si       2.74279093      -0.00097589       2.73032408       0.64509229      -0.03096957      -0.77543164
Si       4.12292809       1.31425434       4.05567250       1.18497747       0.21405567      -0.41676001
Si       2.68443033       2.70840508      -0.05350813      -0.09061830      -1.00813678      -0.92984149
Si       4.07546183       4.06675787       1.32910647      -0.10243285      -0.98569461      -0.01176112
8
Lattice="5.4504 0.0 0.0 0.0 5.4504 0.0 0.0 0.0 5.4504" Properties=species:S:1:pos:R:3:momenta:R:3 time_fs=1740.0 temperature_K=161.33588134338464 pbc="T T T"
Si       0.00126304       0.00137568       0.06779459      -0.38596546      -0.22266057       0.63202206
Si       1.32792002       1.44339583       1.44135016       0.09145035       0.83604965       0.93398708
Si      -0.06279689       2.79408153       2.73304728      -0.52890834       1.19976585       0.03654206
Si       1.40547102       4.08849428       4.11093794      -0.47536024       0.03504315      -0.11440265
Si       2.76132024      -0.00269364       2.69837170       0.39565550      -0.05523707      -0.97201191
Si       4.15910203       1.32599765       4.04938461       0.84009398       0.39322690       0.03529922
Si       2.69291726       2.66555316      -0.07644874       0.54279487      -1.39557789      -0.36799018
Si       4.06600410       4.03499498       1.32676271      -0.47976042      -0.79061021      -0.18344556
8
Lattice="5.4504 0.0 0.0 0.0 5.4504 0.0 0.0 0.0 5.4504" Properties=species:S:1:pos:R:3:momenta:R:3 time_fs=1750.0 temperature_K=121.80004129774652 pbc="T T T"
Si      -0.00438908      -0.00556479       0.08565407       0.07226715      -0.15440168       0.39439611
Si       1.33492369       1.46210674       1.46481854       0.27766495       0.21912951       0.38745839
Si      -0.06918987       2.83351902       2.74140768       0.15798613       1.00831231       0.42415069
Si       1.38142434       4.09789964       4.10284428      -0.79769211       0.47720277      -0.29172294
Si       2.76969660      -0.00379892       2.66787831       0.07932381       0.00569044      -0.69991893
Si       4.18021357       1.33730686       4.05553353       0.37010036       0.19723737       0.26818418
Si       2.71729923       2.61621873      -0.08036225       0.75095169      -1.33019858       0.10673846
Si       4.04122234       4.01351218       1.31342611      -0.91060177      -0.42297236      -0.58928585
8
Lattice="5.4504 0.0 0.0 0.0 5.4504 0.0 0.0 0.0 5.4504" Properties=species:S:1:pos:R:3:momenta:R:3 time_fs=1760.0 temperature_K=82.82977568230665 pbc="T T T"
Si       0.00533798      -0.00850594       0.09573323       0.44950594      -0.00795890       0.18695696
Si       1.34495421       1.45917337       1.46844445       0.26144692      -0.36195561      -0.16173679
Si      -0.05481684       2.86160755       2.75917110       0.59032872       0.56004419       0.51632148
Si       1.35719592       4.11952534       4.09473289      -0.48849269       0.72405356      -0.11778802
Si       2.76713687      -0.00188201       2.65320385      -0.21318623       0.10046838      -0.10702088
Si       4.18653634       1.33706331       4.06469443       0.02521470      -0.22868109       0.21171844
Si       2.73834391       2.57859333      -0.07222776       0.36509576      -0.75560908       0.30742110
Si       4.00651242       4.00562451       1.28744807      -0.98991290      -0.03036165      -0.83587216
8
Lattice="5.4504 0.0 0.0 0.0 5.4504 0.0 0.0 0.0 5.4504" Properties=species:S:1:pos:R:3:momenta:R:3 time_fs=1770.0 temperature_K=68.04935131884537 pbc="T T T"
Si       0.02374524      -0.00628811       0.09903753       0.54746142       0.12464059       0.00441167
Si       1.35117633       1.43946759       1.45577570       0.07416362      -0.71704325      -0.51921414
Si      -0.03337147       2.87071464       2.77228309       0.56874823      -0.05382632       0.17451931
Si       1.35215687       4.14589653       4.09713557       0.23175303       0.73840955       0.26824157
Si       2.75625476       0.00240486       2.66077816      -0.38067817       0.12766640       0.51883602
Si       4.18420444       1.32193299       4.06839623      -0.13481716      -0.60113444      -0.00802711
Si       2.73903041       2.56577842      -0.06247589      -0.34139795       0.02749128       0.20020992
Si       3.97800426       4.01129253       1.26026987      -0.56523281       0.35379596      -0.63897714
8
Lattice="5.4504 0.0 0.0 0.0 5.4504 0.0 0.0 0.0 5.4504" Properties=species:S:1:pos:R:3:momenta:R:3 time_fs=1780.0 temperature_K=107.5405438865252 pbc="T T T"
Si       0.03980093      -0.00091217       0.09591510       0.32181678       0.16211898      -0.18984772
Si       1.34972064       1.41253313       1.43548367      -0.14763707      -0.77381232      -0.59295847
Si      -0.01779417       2.85822171       2.76947174       0.31148753      -0.63442597      -0.32969330
Si       1.37235558       4.16729669       4.11262629       0.86370783       0.42419648       0.58281409
Si       2.74266520       0.00596945       2.68635998      -0.36667613       0.06582946       0.87944278
Si       4.17794661       1.29893455       4.06492578      -0.22078281      -0.64309808      -0.16406070
Si       2.71619865       2.57929920      -0.06085621      -0.90267076       0.71217579      -0.12464222
Si       3.97030739       4.02985687       1.24727392       0.14075482       0.68701542      -0.06105436
8
Lattice="5.4504 0.0 0.0 0.0 5.4504 0.0 0.0 0.0 5.4504" Properties=species:S:1:pos:R:3:momenta:R:3 time_fs=1790.0 temperature_K=142.51789953973892 pbc="T T T"
Si       0.04389815       0.00354803       0.08502520      -0.10136425       0.07348055      -0.44401224
Si       1.34251935       1.38827231       1.41702446      -0.23021526      -0.58228924      -0.43800317
Si      -0.01087272       2.82921005       2.75141341       0.10707415      -0.97420291      -0.65345288
Si       1.40611954       4.17208680       4.13447679       0.95210695      -0.17618057       0.60675450
Si       2.73225897       0.00676206       2.71720320      -0.21272232      -0.01829284       0.81149533
Si       4.16859136       1.28204366       4.05915095      -0.31876060      -0.25557278      -0.13444680
Si       2.68198484       2.61249977      -0.07021803      -0.94919076       1.12992937      -0.36277116
Si       3.98670137       4.05677675       1.25712430       0.75307228       0.80312816       0.61443651
8
Lattice="5.4504 0.0 0.0 0.0 5.4504 0.0 0.0 0.0 5.4504" Properties=species:S:1:pos:R:3:momenta:R:3 time_fs=1800.0 temperature_K=133.0760658034235 pbc="T T T"
Si       0.03332468       0.00342083       0.06447122      -0.47450323      -0.08195209      -0.72706645
Si       1.33608927       1.37289129       1.40509457      -0.10522697      -0.29831228      -0.26228297
Si      -0.00852119       2.79359075       2.72767766       0.05179054      -1.01604231      -0.64651457
Si       1.43076728       4.15577775       4.15038280       0.34988230      -0.70934833       0.23087389
Si       2.72816480       0.00501140       2.73917494      -0.02616945      -0.07589621       0.41089089
Si       4.15524131       1.28456091       4.05724510      -0.45159093       0.42805949       0.04078204
Si       2.65725811       2.65351076      -0.08095028      -0.36515418       1.13666164      -0.15645144
Si       4.01887659       4.08243574       1.28810427       1.02097209       0.61682983       1.10976871
8
Lattice="5.4504 0.0 0.0 0.0 5.4504 0.0 0.0 0.0 5.4504" Properties=species:S:1:pos:R:3:momenta:R:3 time_fs=1810.0 temperature_K=159.07331780205104 pbc="T T T"
Si       0.01342791      -0.00151163       0.03531323      -0.62195620      -0.18158735      -0.91331661
Si       1.33673635       1.36617955       1.39634827       0.15350830      -0.11604403      -0.27891090
Si      -0.00587450       2.76072280       2.70967935       0.11413901      -0.83832594      -0.34485739
Si       1.42549764       4.12681516       4.14632387      -0.67484322      -0.88956303      -0.49948497
Si       2.72953799       0.00196774       2.74548626       0.08603501      -0.08887925      -0.02996393
Si       4.13651148       1.31201522       4.06231677      -0.62426801       1.11219391       0.24360079
Si       2.66137137       2.68737987      -0.07507187       0.62667746       0.76507106       0.55305009
Si       4.05399263       4.09763070       1.33080439       0.94070784       0.23713436       1.26988303
8
Lattice="5.4504 0.0 0.0 0.0 5.4504 0.0 0.0 0.0 5.4504" Properties=species:S:1:pos:R:3:momenta:R:3 time_fs=1820.0 temperature_K=257.16774573967064 pbc="T T T"
Si      -0.00783725      -0.00771265       0.00284346      -0.57129897      -0.15005110      -0.91012090
Si       1.34676770       1.36237743       1.38308416       0.40731208      -0.13343068      -0.50360952
Si       0.00006775       2.73558151       2.70480052       0.22728694      -0.60865636       0.05986441
Si       1.38634797       4.09571327       4.11606165      -1.46319560      -0.88234387      -1.17292192
Si       2.73267323      -0.00043629       2.73974475       0.07035533      -0.03727639      -0.24910192
Si       4.11171873       1.35835169       4.07330234      -0.78148749       1.45753744       0.36319312
Si       2.69871128       2.70798821      -0.04140620       1.41530727       0.47126796       1.33483717
Si       4.08275146       4.09933623       1.37276959       0.69572066      -0.11704725       1.07785963
8
Lattice="5.4504 0.0 0.0 0.0 5.4504 0.0 0.0 0.0 5.4504" Properties=species:S:1:pos:R:3:momenta:R:3 time_fs=1830.0 temperature_K=262.45282696594353 pbc="T T T"
Si      -0.02571998      -0.01078677      -0.02646402      -0.44717467      -0.01609820      -0.74739982
Si       1.36365660       1.35527999       1.36061437       0.52894001      -0.28315242      -0.77245709
Si       0.00939324       2.71613817       2.71153282       0.28505835      -0.54982300       0.26565784
Si       1.33263926       4.06550165       4.07088525      -1.45581721      -0.82295724      -1.29201948
Si       2.73301564      -0.00014546       2.73146726      -0.06717091       0.05387283      -0.18211795
Si       4.08338955       1.40770164       4.08600773      -0.81099113       1.27452861       0.33922668
Si       2.75143613       2.72545783       0.01334760       1.45727457       0.59282618       1.70441263
Si       4.10339045       4.09205234       1.40380927       0.50988121      -0.24919701       0.68469728
8
Lattice="5.4504 0.0 0.0 0.0 5.4504 0.0 0.0 0.0 5.4504" Properties=species:S:1:pos:R:3:momenta:R:3 time_fs=1840.0 temperature_K=147.42787190420137 pbc="T T T"
Si      -0.03896423      -0.00877817      -0.04884030      -0.30791299       0.12354692      -0.53243189
Si       1.38157229       1.34262201       1.33053819       0.46569701      -0.43095976      -0.91743804
Si       0.01805532       2.69337300       2.71838788       0.18360092      -0.80039323       0.05773198
Si       1.29407049       4.04116618       4.03390112      -0.64569257      -0.51674869      -0.72132062
Si       2.72736636       0.00281119       2.72900367      -0.25526343       0.10197675       0.05453863
Si       4.05663222       1.44241718       4.09585127      -0.70409991       0.66340803       0.21745927
Si       2.79178913       2.75167284       0.07094618       0.75078326       0.90190099       1.48831556
Si       4.12067930       4.08591514       1.42141227       0.51288791      -0.04273126       0.35314521
8
Lattice="5.4504 0.0 0.0 0.0 5.4504 0.0 0.0 0.0 5.4504" Properties=species:S:1:pos:R:3:momenta:R:3 time_fs=1850.0 temperature_K=102.72295983780315 pbc="T T T"
Si      -0.04704611      -0.00305582      -0.06409011      -0.15021968       0.18791688      -0.34819226
Si       1.39458756       1.32609103       1.29874224       0.26343483      -0.49920353      -0.86776069
Si       0.02149990       2.65879295       2.71272696       0.02505689      -1.15689424      -0.38295393
Si       1.29089557       4.03159876       4.02470993       0.45107212      -0.03328464       0.20732669
Si       2.71590508       0.00598702       2.73513539      -0.38008339       0.06687387       0.27977767
Si       4.03438385       1.45296966       4.10163641      -0.57376798      -0.04657875       0.12921662
Si       2.79993421       2.78645110       0.11106758      -0.29686244       1.04406843       0.73410570
Si       4.14104084       4.09236468       1.43127190       0.66136985       0.43710172       0.24848028
8
Lattice="5.4504 0.0 0.0 0.0 5.4504 0.0 0.0 0.0 5.4504" Properties=species:S:1:pos:R:3:momenta:R:3 time_fs=1860.0 temperature_K=157.07756723768784 pbc="T T T"
Si      -0.04916026       0.00329801      -0.07384677       0.03330922       0.16128470      -0.21875764
Si       1.39963888       1.30872735       1.27191706       0.03066486      -0.47910677      -0.64147597
Si       0.02174706       2.61637734       2.69416556       0.02171350      -1.18837041      -0.61449145
Si       1.32085068       4.03617342       4.04580399       1.15160623       0.23604339       0.92192979
Si       2.70255454       0.00700914       2.74675898      -0.35586123      -0.00930970       0.35193654
Si       4.01593284       1.44170508       4.10610593      -0.48819716      -0.54372700       0.14032790
Si       2.77362760       2.82199929       0.11994085      -1.12288978       0.95739373      -0.21372188
Si       4.16600958       4.11590974       1.44035469       0.72965451       0.86579179       0.27425278
8
Lattice="5.4504 0.0 0.0 0.0 5.4504 0.0 0.0 0.0 5.4504" Properties=species:S:1:pos:R:3:momenta:R:3 time_fs=1870.0 temperature_K=136.28278892327836 pbc="T T T"
Si      -0.04461183       0.00734999      -0.07994711       0.22439311       0.06018132      -0.13674053
Si       1.39773461       1.29369490       1.25507851      -0.11781692      -0.36189422      -0.31159423
Si       0.02449659       2.58134439       2.67468728       0.13990108      -0.74360698      -0.43161995
Si       1.36242692       4.04453438       4.08215295       1.08945267       0.21344166       1.03823487
Si       2.69267974       0.00553418       2.75738296      -0.19138475      -0.07062501       0.22483724
Si       4.00019819       1.41930321       4.11184030      -0.40486377      -0.67187258       0.18474240
Si       2.72966293       2.85122696       0.10037075      -1.25035457       0.67325101      -0.80341699
Si       4.18861375       4.14821136       1.44963465       0.51067330       0.90112456       0.23555728
8
Lattice="5.4504 0.0 0.0 0.0 5.4504 0.0 0.0 0.0 5.4504" Properties=species:S:1:pos:R:3:momenta:R:3 time_fs=1880.0 temperature_K=33.10466235258288 pbc="T T T"
Si      -0.03408944       0.00711802      -0.08365888       0.36060221      -0.07334270      -0.07447774
Si       1.39307898       1.28482670       1.25035280      -0.12619059      -0.12484843       0.04046587
Si       0.03075701       2.56795080       2.66766401       0.19664409       0.00741738       0.06423228
Si       1.38847726       4.05111985       4.11003429       0.30597032       0.18160384       0.44860557
Si       2.68973090       0.00234920       2.76096780       0.02125264      -0.10727880      -0.03093020
Si       3.98854995       1.39875533       4.11845476      -0.24221977      -0.45779252       0.18152852
Si       2.69578658       2.86541888       0.07211657      -0.57101579       0.08392912      -0.69505785
Si       4.19890967       4.17366058       1.45526895       0.05495701       0.49031187       0.06563364
8
Lattice="5.4504 0.0 0.0 0.0 5.4504 0.0 0.0 0.0 5.4504" Properties=species:S:1:pos:R:3:momenta:R:3 time_fs=1890.0 temperature_K=55.32189372138445 pbc="T T T"
Si      -0.02104892       0.00274702      -0.08461979       0.35598460      -0.16108568       0.03433673
Si       1.38987567       1.28609389       1.25776155      -0.05395067       0.20734223       0.38094459
Si       0.03660918       2.58229431       2.67997027       0.11542707       0.79498884       0.62616425
Si       1.38120098       4.05795697       4.10914591      -0.69122934       0.19783630      -0.50152569
Si       2.69354835      -0.00158071       2.75527367       0.18320788      -0.10967680      -0.28303566
Si       3.98474896       1.38905013       4.12358102       0.04673791      -0.09411832       0.09702220
Si       2.69401482       2.85519707       0.05707415       0.46398044      -0.65344551      -0.14589988
Si       4.19225188       4.17944066       1.45301353      -0.42015774      -0.18184130      -0.20800647
8
Lattice="5.4504 0.0 0.0 0.0 5.4504 0.0 0.0 0.0 5.4504" Properties=species:S:1:pos:R:3:momenta:R:3 time_fs=1900.0 temperature_K=181.3618554049906 pbc="T T T"
Si      -0.01112927      -0.00270839      -0.07989650       0.19007021      -0.12939447       0.25604508
Si       1.38873326       1.29946468       1.27679493      -0.02874862       0.55103838       0.70261292
Si       0.03739339       2.62061165       2.70873459      -0.09126110       1.32989825       0.95448304
Si       1.34664620       4.06300939       4.07913090      -1.14699380       0.06564055      -1.10670422
Si       2.70149202      -0.00470647       2.74253458       0.25645701      -0.06157348      -0.42030292
Si       3.99312507       1.39085550       4.12424202       0.44570310       0.15993166      -0.07263965
Si       2.72339133       2.82359759       0.05942422       1.09946852      -1.07366188       0.20700085
Si       4.17154892       4.16107537       1.44023556      -0.72469518      -0.84187926      -0.52049504
8
Lattice="5.4504 0.0 0.0 0.0 5.4504 0.0 0.0 0.0 5.4504" Properties=species:S:1:pos:R:3:momenta:R:3 time_fs=1910.0 temperature_K=204.5843702133462 pbc="T T T"
Si      -0.00824780      -0.00528725      -0.06576742      -0.01667212      -0.01233971       0.55569577
Si       1.38639576       1.32377552       1.30626872      -0.12617478       0.82153553       0.96740101
Si       0.02865042       2.66939378       2.74095657      -0.43159287       1.36264706       0.79409593
Si       1.31121981       4.06288044       4.04075181      -0.74087441      -0.03298845      -0.95213142
Si       2.71066877      -0.00566502       2.72765910       0.26052429       0.00508211      -0.40723914
Si       4.01618022       1.39694932       4.11782895       0.86290518       0.13840627      -0.29689582
Si       2.76182940       2.78514423       0.06589407       0.97181651      -1.07456595       0.08594450
Si       4.14450434       4.12400831       1.41760851      -0.77993167      -1.20777710      -0.74687076
8
Lattice="5.4504 0.0 0.0 0.0 5.4504 0.0 0.0 0.0 5.4504" Properties=species:S:1:pos:R:3:momenta:R:3 time_fs=1920.0 temperature_K=164.04986563881576 pbc="T T T"
Si      -0.01073010      -0.00379695      -0.04146265      -0.09256387       0.08791497       0.82010589
Si       1.37873157       1.35533339       1.34292065      -0.32145581       0.95411084       1.09959738
Si       0.00643096       2.71006692       2.75862661      -0.82553183       0.91172828       0.16612413
Si       1.30193360       4.06455979       4.02062171       0.26134984       0.17670746      -0.11957289
Si       2.71953891      -0.00472399       2.71520964       0.24973491       0.04171078      -0.29598987
Si       4.05169966       1.39741228       4.10398402       1.12688906      -0.14893601      -0.47667664
Si       2.78416496       2.75009668       0.06095970       0.23292879      -0.92666753      -0.41578164
Si       4.11943138       4.08225119       1.39034063      -0.63135093      -1.09656904      -0.77780628
8
Lattice="5.4504 0.0 0.0 0.0 5.4504 0.0 0.0 0.0 5.4504" Properties=species:S:1:pos:R:3:momenta:R:3 time_fs=1930.0 temperature_K=203.16588273396044 pbc="T T T"
Si      -0.01221647       0.00008680      -0.00966779       0.04274207       0.12348827       0.97734361
Si       1.36398461       1.38809466       1.38083900      -0.50956245       0.87979998       1.03248238
Si      -0.02559687       2.73312336       2.75261788      -0.92329248       0.45312752      -0.45794039
Si       1.32856490       4.07611152       4.03401878       1.18619601       0.45956759       0.85228316
Si       2.72856647      -0.00308560       2.70702616       0.27282315       0.05091945      -0.17695742
Si       4.09139692       1.38480940       4.08637049       1.08730395      -0.58185113      -0.49847102
Si       2.77597571       2.71997252       0.03519358      -0.68680037      -0.80164175      -1.05103225
Si       4.10052566       4.05208664       1.36480220      -0.46940972      -0.58341016      -0.67770800
8
Lattice="5.4504 0.0 0.0 0.0 5.4504 0.0 0.0 0.0 5.4504" Properties=species:S:1:pos:R:3:momenta:R:3 time_fs=1940.0 temperature_K=241.84413769793215 pbc="T T T"
Si      -0.00577911       0.00428757       0.02537410       0.34301504       0.11120606       1.00267988
Si       1.34480753       1.41413019       1.41266616      -0.55124302       0.57395129       0.75459068
Si      -0.05204794       2.74650077       2.73248668      -0.51811599       0.38171909      -0.59274854
Si       1.37697176       4.09399189       4.07494660       1.44880974       0.52985430       1.38292809
Si       2.73876594      -0.00101157       2.70230052       0.30521955       0.07058203      -0.10164784
Si       4.12435999       1.35726970       4.07118337       0.76248177      -0.96520063      -0.34687211
Si       2.74013489       2.69362746      -0.00974270      -1.26819334      -0.71504485      -1.44613390
Si       4.08398787       4.04240328       1.34198559      -0.52197356       0.01293248      -0.65279616
8
Lattice="5.4504 0.0 0.0 0.0 5.4504 0.0 0.0 0.0 5.4504" Properties=species:S:1:pos:R:3:momenta:R:3 time_fs=1950.0 temperature_K=189.2512761154166 pbc="T T T"
Si       0.01194393       0.00747983       0.05868230       0.65467666       0.06502097       0.87463489
Si       1.32827781       1.42666362       1.43194385      -0.35331689       0.13671529       0.33685290
Si      -0.05947187       2.76353682       2.71750583       0.08888665       0.62508364      -0.19405583
Si       1.42104900       4.11255197       4.12268059       0.96184522       0.54557188       1.22994267
Si       2.74893788       0.00182794       2.69944034       0.25517628       0.08697747      -0.06719052
Si       4.14379081       1.32054750       4.06296464       0.35726987      -1.07314937      -0.12086326
Si       2.69514680       2.66845217      -0.05957055      -1.18678271      -0.75689817      -1.30417834
Si       4.06152659       4.05013944       1.31755334      -0.77775488       0.37067806      -0.75514240
8
Lattice="5.4504 0.0 0.0 0.0 5.4504 0.0 0.0 0.0 5.4504" Properties=species:S:1:pos:R:3:momenta:R:3 time_fs=1960.0 temperature_K=120.93800417349372 pbc="T T T"
Si       0.03752410       0.00834030       0.08470832       0.75418158      -0.02300356       0.59065630
Si       1.32217950       1.42466669       1.43680526       0.01846820      -0.21753286      -0.02990952
Si      -0.04811214       2.79095537       2.72141915       0.50974602       0.93135209       0.41638560
Si       1.43908327       4.13339102       4.15426103       0.04115196       0.65004339       0.51297853
Si       2.75502381       0.00452287       2.69729694       0.07297150       0.05859700      -0.05904631
Si       4.15125949       1.28676260       4.06238416       0.11059159      -0.79743048       0.07703294
Si       2.66387819       2.63872116      -0.09524372      -0.53892372      -0.95203658      -0.68468636
Si       4.03036473       4.06383927       1.28956918      -0.96818694       0.35001077      -0.82341111
8
Lattice="5.4504 0.0 0.0 0.0 5.4504 0.0 0.0 0.0 5.4504" Properties=species:S:1:pos:R:3:momenta:R:3 time_fs=1970.0 temperature_K=103.76162384651515 pbc="T T T"
Si       0.06022253       0.00551702       0.09893079       0.47710662      -0.13925161       0.21751121
Si       1.32919731       1.41465416       1.43300275       0.35911859      -0.30360492      -0.13371133
Si      -0.02774600       2.82643594       2.74412405       0.59710593       1.04663821       0.81668456
Si       1.42562839       4.15614373       4.15734366      -0.73883894       0.59563822      -0.31017238
Si       2.75335007       0.00548147       2.69511931      -0.16499469      -0.00699848      -0.06605525
Si       4.15458112       1.26796734       4.06730152       0.11986521      -0.25153413       0.18478741
Si       2.65860887       2.60384386      -0.10684060       0.21137712      -0.97763923      -0.00792843
Si       3.99735867       4.07115576       1.26221885      -0.86073965       0.03675173      -0.70111570
8
Lattice="5.4504 0.0 0.0 0.0 5.4504 0.0 0.0 0.0 5.4504" Properties=species:S:1:pos:R:3:momenta:R:3 time_fs=1980.0 temperature_K=81.27022681330163 pbc="T T T"
Si       0.06720517      -0.00094709       0.10040878      -0.10756089      -0.21622449      -0.11493254
Si       1.34464041       1.40652808       1.43069083       0.47534858      -0.13002466       0.03146920
Si      -0.01026273       2.85974382       2.77278085       0.34901824       0.78657176       0.73010840
Si       1.39430991       4.17084992       4.13664509      -0.94102819       0.19846332      -0.79228722
Si       2.74481139       0.00402209       2.69290930      -0.29052688      -0.07407602      -0.05239235
Si       4.16157797       1.26943362       4.07366399       0.29126357       0.31928321       0.15224333
Si       2.67492216       2.57589040      -0.09931599       0.65252707      -0.54417212       0.37913791
Si       3.97399669       4.06567842       1.24341747      -0.42904131      -0.33982120      -0.33334667
8
Lattice="5.4504 0.0 0.0 0.0 5.4504 0.0 0.0 0.0 5.4504" Properties=species:S:1:pos:R:3:momenta:R:3 time_fs=1990.0 temperature_K=62.17287942183715 pbc="T T T"
Si       0.05282993      -0.00828241       0.09256377      -0.68115711      -0.18306204      -0.30865892
Si       1.35892346       1.40646619       1.43559144       0.29507693       0.12171097       0.23036302
Si      -0.00638091       2.87671488       2.78918840      -0.15275718       0.12918450       0.13875969
Si       1.36675675       4.16883055       4.10817739      -0.55747370      -0.30247308      -0.74642220
Si       2.73575061       0.00057779       2.69222945      -0.18830339      -0.11734675       0.02583064
Si       4.17440479       1.28820334       4.07618930       0.41568406       0.71360326      -0.02722835
Si       2.69943419       2.56942655      -0.08406223       0.68519418       0.19687663       0.44868202
Si       3.96948216       4.04926238       1.24132281       0.18373640      -0.55849368       0.23867417
8
Lattice="5.4504 0.0 0.0 0.0 5.4504 0.0 0.0 0.0 5.4504" Properties=species:S:1:pos:R:3:momenta:R:3 time_fs=2000.0 temperature_K=110.84645554051349 pbc="T T T"
Si       0.02348903      -0.01261812       0.08023457      -0.92594175      -0.05471589      -0.38244195
Si       1.36304560       1.41364708       1.44433660      -0.07199016       0.25605804       0.22323679
Si      -0.02047367       2.86696337       2.78004988      -0.60697836      -0.67784539      -0.65386504
Si       1.35806609       4.15150055       4.08934725       0.05739291      -0.65857211      -0.28891234
Si       2.73376047      -0.00361852       2.69541442       0.09125358      -0.11142435       0.16240453
Si       4.18776306       1.31620242       4.07127083       0.29551163       0.84031325      -0.24571565
Si       2.71920445       2.58918434      -0.07016622       0.40851980       0.90179843       0.32780100
Si       3.98634593       4.02993814       1.26071301       0.75223252      -0.49561215       0.85749272
