150
Lattice="10.0 0.0 0.0 0.0 10.0 0.0 0.0 0.0 54.11" Properties=species:S:1:pos:R:3:reference_force:R:3:predicted_force:R:3:force_error_norm:R:1 case_id=dft/etch/trj_CF2_30eV.extxyz:232 model=deepmd selection=prior_outlier pbc="T T T"
C        9.85000000       9.93000000      33.35000000      -1.10612800      -1.72675100      -0.99065600      -0.65527153      -1.32700115       1.58876342       2.64886316
C        9.95000000       0.75000000      32.19000000       0.31350700       1.91757000      -3.07915500      -0.20107079       0.86991796      -1.39228169       2.05131827
C        3.88000000       5.51000000      19.04000000       9.07044400      -0.41151600      -1.53349100       7.06905053       0.08906270       0.34206921       2.78816802
F        3.65000000       7.33000000      14.39000000      -0.85020600      -0.78786700       0.72754800      -0.86041522      -0.59116351      -0.99968609       1.73842862
F        4.64000000       0.72000000      14.51000000       0.29250000      -1.13835700       0.56252300       0.40701479      -1.13940567      -0.63003930       1.19804823
F        7.51000000       7.93000000      14.43000000      -0.55188000       1.24210800       1.27192300      -0.30158059       1.41301972       0.14280408       1.16908945
F        4.59000000       8.03000000      16.31000000       0.79339600      -1.99138200       2.56338000       1.21323922      -0.92279910       0.76829223       2.13083970
F        7.80000000       7.19000000      11.89000000      -0.53635300      -0.70803500       1.94625600      -0.40566909      -0.65927977       0.65617986       1.29759463
F        0.69000000       6.88000000      13.99000000      -0.06059500      -0.60633200      -0.32538400      -0.22232415      -0.56234059      -1.59243257       1.27808593
F        2.74000000       9.96000000      12.69000000      -0.01655500      -1.28763100       0.35863400       0.02028592      -1.21387262      -0.82857561       1.19006899
F        1.48000000       5.58000000      21.06000000       1.44692700      -1.31271400      -1.72526100      -0.32348174      -1.40433065       1.75122337       3.90239469
F        4.94000000       3.31000000      16.30000000      -0.70820600       3.10473500       1.49625600      -0.07382520       1.79764468      -0.49227417       2.46275787
F        9.94000000       3.20000000      16.96000000      -0.60005700       1.29383000       0.37685000      -0.93644004       0.89311828      -0.12468905       0.72475158
F        6.84000000       9.12000000      17.73000000      -2.94247500       1.10354100      -0.36493800      -2.19871937       1.70506924      -0.33969394       0.95689390
F        3.89000000       1.58000000      17.55000000       2.60037400       3.05318400       1.93310300       2.58570266       2.08496832       1.54548240       1.04302760
F        0.32000000       5.15000000      18.79000000       1.96740500       1.95056700       0.32687100       0.25595975       1.66105901       0.91616958       1.83306643
F        8.09000000       4.54000000      11.94000000       0.77332500      -0.14864200       1.82333700       0.84996327      -0.16044661       0.60285440       1.22294339
F        9.37000000       2.53000000      19.58000000       1.08645600       0.92345300      -1.37200900       1.03629700       0.43751656      -0.13915794       1.32611157
F        3.30000000       9.89000000      20.17000000      -1.14381500      -1.63954100      -3.30380200      -1.22414621      -1.00559264      -1.35231663       2.05344558
F        7.72000000       2.37000000      22.69000000       0.11485400       0.24452100      -2.89818900       0.39384099       0.03187269      -0.16649835       2.75412179
F        6.57000000       0.21000000      22.42000000       0.34246700      -0.49614900      -2.90587000       0.63080412      -0.43946426      -0.27889681       2.64335764
F        8.77000000       0.34000000      23.75000000       0.53344400      -0.63086600      -2.22149900       0.66414765      -0.63704953       0.56516477       2.78973416
F        0.90000000       9.06000000      33.34000000       0.49299500      -0.16045400      -3.11995500       0.46898811      -0.30374302       0.13537868       3.25857415
F        4.49000000       5.77000000      20.39000000      -3.31276100      -1.47028400      -9.77040300      -1.66139202      -0.07290876      -1.03119436       9.00296866
F        5.44000000       3.48000000      19.05000000      -3.35854600       4.59370800       0.02860600      -0.61578955       0.54944727       1.13143347       5.00948962
O        1.15000000       3.26000000       1.39000000      -0.48214200      -4.13920700      -1.30118200       0.59883349      -2.00925872      -0.89535398       2.42278436
O        4.63000000       2.27000000       1.61000000      -0.80260400      -1.46530500      -0.44872000      -1.41698129      -0.12409622       0.22460339       1.62162414
O        1.14000000       0.68000000       2.07000000       0.75003600      -1.06224400      -0.04892100       0.86058650      -0.87335905       0.46723771       0.56064138
O        6.49000000       0.82000000       0.50000000      -2.93210500      -0.60714200      -2.18178400      -2.63732877      -0.44900658      -0.96327823       1.26358860
O        9.12000000       1.59000000       0.68000000       2.43587400      -0.50201500      -2.49643200       2.94930766      -0.11692099      -1.20150902       1.44524636
O        6.01000000       4.43000000       2.37000000       1.09739100      -0.84840000      -0.35297000       0.35712571      -0.49920150      -0.42696182       0.82183154
O        6.75000000       2.00000000       3.12000000       0.26124900      -0.13511200       1.56075800       0.41152101       0.14147049       1.66413876       0.33131123
O        5.11000000       9.50000000       2.24000000      -2.10513300       0.65987000      -0.42498000      -2.33799009       0.18038752      -0.10393782       0.62224911
O        3.11000000       5.07000000       0.61000000       2.24380400       0.24791100      -3.40488200       0.39235150      -0.10612033      -0.95900420       3.08796579
O        0.81000000       5.93000000       1.29000000      -3.33760500       1.78665300      -1.25177800      -0.93003860       0.50819110      -0.42290075       2.84918906
O        2.52000000       5.00000000       3.05000000      -0.08356900      -0.06543700       1.81321800      -0.02621286       0.06328803      -0.36450044       2.18227346
O        5.07000000       6.84000000       2.38000000       1.77256200       2.61006900      -1.33962800       0.68859592       1.61631389      -1.57121907       1.48867931
O        6.98000000       8.25000000       1.12000000       3.73561300       0.61774000      -2.56786600       3.93653224       0.23687872      -1.34899507       1.29269880
O        7.86000000       6.38000000       2.36000000      -1.41641400      -0.81026500       0.95193100      -0.97378531      -1.23444603       1.16883491       0.65030532
O        9.62000000       8.38000000       2.55000000      -1.42754500       1.07460500      -1.15351600      -0.78998801       0.41548176      -1.12946460       0.91733354
O        4.26000000       3.17000000       4.00000000       0.74799300      -0.43810400       0.74739900       0.32126364       0.10330068       0.00897936       1.01018837
O        1.58000000       3.26000000       4.59000000      -0.87998700      -0.78456900       1.91103400      -0.74104991      -0.29889316       1.00918084       1.03369418
O        2.88000000       1.72000000       6.96000000      -3.47743100      -0.69433300      -0.54382100      -3.35492386      -0.58083423      -1.30463301       0.77892547
O        9.06000000       0.52000000       3.86000000      -0.24859300      -0.72356200       0.18879400      -0.16366429      -0.57120764      -0.02754112       0.27789499
O        9.02000000       2.97000000       4.17000000      -0.35708000       1.15578700       0.81502600       0.13332764       1.51172808       0.31127414       0.78800993
O        7.41000000       1.41000000       5.67000000       0.14304200       1.21580700      -1.62064900       0.16572999       1.21101658      -2.01235542       0.39239217
O        0.20000000       2.49000000       6.54000000      -0.27744500      -1.31858500       2.50143800      -0.06307283      -1.22716526       1.86377985       0.67891157
O        7.47000000       9.32000000       7.14000000       0.10239600       1.28143800       1.48072500       0.15305250       1.22726183       0.82377968       0.66111897
O        1.63000000       9.37000000       4.22000000      -0.83565600       0.04289500       0.21172800      -0.58747220      -0.42257875      -0.19240763       0.66451984
O        3.77000000       7.54000000       4.75000000       1.24839300      -0.05641400      -0.21152300       1.04699738      -0.44617370      -0.97018801       0.87638200
O        3.38000000       5.11000000       5.59000000      -0.90400300      -1.32137200       0.03400600      -1.02122133      -1.26033197      -0.91802330       0.96115858
O        1.34000000       7.03000000       5.52000000       1.22144300       0.84754400       0.83981200       1.36536244       0.52418065      -0.12438380       1.02710769
O        2.86000000       8.80000000       6.63000000       0.21850500       1.97874800       0.33803600       0.33525686       1.75071395      -0.26089673       0.65142225
O        5.08000000       6.02000000       6.87000000       1.56098100       0.57162100      -1.08078200       1.51460248       0.49154219      -1.79455280       0.71974463
O        6.11000000       5.83000000       4.50000000       0.22574500      -0.47949300      -0.16485700      -0.02409378      -0.55944308      -0.73529946       0.62786625
O        9.72000000       4.96000000       5.58000000      -0.71220100       1.66737400       1.46582000      -0.34994374       1.75733021       0.60128274       0.94167251
O        9.03000000       7.68000000       5.67000000      -1.40020300      -0.68447900       1.54218800      -1.13179754      -0.84593803       0.82816348       0.77970605
O        6.14000000       8.05000000       5.59000000      -0.24854400      -0.82598700       0.18894800      -0.17630075      -0.91982667      -0.33790985       0.54000385
O        5.42000000       1.18000000       7.51000000      -0.13590200      -0.27169000      -0.53024900      -0.14104899      -0.23769307      -1.22556413       0.69616479
O        4.55000000       3.79000000       7.55000000      -0.44587800      -1.58696200       0.98752100      -0.37720375      -1.54407776       0.20642870       0.78527727
O        2.03000000       3.99000000       7.63000000      -0.97989300       0.68775000       1.44729700      -0.87522808       0.69251964       0.58647726       0.86717249
O        3.80000000       2.05000000       9.32000000       0.15664000       0.54094500       2.49631200       0.25386605       0.52194916       1.74937026       0.75348239
O        5.01000000       0.30000000      10.59000000      -0.00601700      -2.90448100       1.55140200       0.04745209      -3.03073804       0.74205910       0.82087496
O        1.61000000       3.41000000      10.36000000       0.24256600      -1.78036000       0.13358300       0.31556528      -1.79114112      -0.79837294       0.93487272
O        0.96000000       1.63000000       8.87000000      -0.48535900       0.13635200       0.94155400      -0.40970372       0.17767165       0.18854024       0.75793190
O        7.77000000       1.59000000       8.39000000      -0.34917300      -0.13468100      -1.12176800      -0.28047174      -0.10305757      -1.78242931       0.66497614
O        9.09000000       3.30000000       9.64000000      -0.50618100       0.42135900       1.90918000      -0.38300275       0.40749429       1.10952969       0.80920067
O        6.28000000       2.64000000      10.16000000       0.69862500       0.75716900       0.51821700       0.72692152       0.79469556      -0.20899440       0.72872859
O        3.09000000       6.36000000       7.94000000      -1.65101500      -1.63975000       0.39501600      -1.57931203      -1.70311010      -0.46872907       0.86902897
O        4.01000000       8.40000000       8.94000000       3.43679200       2.02808800       3.12700100       3.55954169       2.00059731       2.36514021       0.77217555
O        1.53000000       8.26000000       8.75000000      -2.92991800      -1.49807500       1.94015700      -2.78437098      -1.53307171       1.10486183       0.84860280
O        3.21000000       5.55000000      10.63000000       1.79131300      -0.46387600       0.79706500       1.88954055      -0.41885311      -0.12650688       0.92987135
O        5.40000000       6.07000000       9.17000000      -0.96159100       0.17550600       5.79816200      -1.03980634       0.23165934       5.16706651       0.63839828
O        7.11000000       4.32000000       8.14000000       0.68177300      -1.73610600       1.93524400       0.71237263      -1.74457276       1.20913401       0.72680379
O        0.10000000       6.16000000       7.79000000       0.20121700       1.11723600       4.24732600       0.37437942       1.04480693       3.50564596       0.76506240
O        7.57000000       6.63000000       7.42000000      -1.31327500      -0.24949100       1.67170000      -1.30961227      -0.36091802       0.94313748       0.73704324
O        0.88000000       5.96000000      10.39000000      -0.70283200       0.06466100       0.27820700      -0.55495456      -0.05108493      -0.53096803       0.83067989
O        9.19000000       7.81000000       9.92000000       0.66607500       0.10459800      -0.60310700       0.72352142       0.10268157      -1.40956073       0.80849946
O        6.63000000       8.38000000       9.84000000      -1.81288800       0.04542700       0.45721900      -1.72781536       0.04048171      -0.34370008       0.80543975
O        4.59000000       2.49000000      12.14000000       0.26888700       2.08029500       0.68901700       0.42923848       2.08345415      -0.14123603       0.84560196
O        2.61000000       1.95000000      14.17000000      -0.73490700      -0.54897300       0.38454800      -0.80480839      -0.52256622      -0.53384964       0.92143244
O        0.14000000       1.54000000      11.61000000      -0.60224200       0.19118700      -0.53784200      -0.52223563       0.15542374      -1.30502674       0.77217385
O        8.10000000       9.71000000      11.48000000      -0.12769700       0.32297700       0.05904200      -0.10033935       0.29188122      -0.77219092       0.83226412
O        7.89000000       2.18000000      12.84000000       0.98581800      -4.33716500      -0.35381600       1.11384976      -4.46248947      -1.15088795       0.81695902
O        6.46000000       4.17000000      13.88000000      -1.15286700      -1.43686400      -0.20289100      -1.00863133      -1.53327488      -1.17575349       0.98821071
O        9.23000000       9.84000000      13.73000000      -0.18092600       1.70201600      -0.56786900      -0.15314976       1.77655482      -1.34301526       0.77921709
O        4.60000000       7.66000000      11.42000000       0.29760400      -1.31654200      -0.36364000       0.37701955      -1.38188110      -1.23268717       0.87511085
O        3.76000000       4.40000000      13.94000000       2.96452200      -0.40313000      -0.08987300       3.05489468      -0.57319138      -1.32894720       1.25395094
O        5.51000000       5.19000000      11.80000000      -0.67189500      -1.32967400       1.64853100      -0.52421641      -1.31899448       0.69180556       0.96811497
O        1.63000000       4.39000000      12.70000000      -0.07227900       0.21861700      -2.14500200      -0.07088780       0.16068331      -3.13461985       0.99131314
O        9.04000000       3.88000000      14.47000000       0.43144400       0.83968800       1.95342500       0.46082333       0.69393701       1.12292610       0.84370309
O        2.67000000       9.39000000      15.43000000      -1.41683400       1.61698000      -1.58742700      -1.57491102       2.03156990      -2.47043833       0.98822170
O        7.91000000       0.26000000      16.00000000      -0.24812100       1.62412300      -1.90828300      -0.07977290       1.62161328      -2.32984742       0.45394266
O        6.75000000       2.11000000      17.53000000      -3.10312800       2.22685500       0.45060300      -2.18819831       1.29949586       0.37896366       1.30469288
O        8.50000000       0.18000000      18.62000000       2.31541700       3.67703900      -0.04364800       2.52522025       3.68440930       0.92260055       0.98879118
O        1.40000000       3.93000000      15.24000000       5.01501600       0.70607200      -1.14338600       4.72513256       0.44145800      -2.22275698       1.14851847
O        1.89000000       6.99000000      16.20000000      -1.58517900      -3.01482900       2.14776500      -2.52610296      -2.57348175       0.81356973       1.69121327
O        2.73000000       5.48000000      18.84000000       2.49591800       0.33792300      -1.26190400      -4.71736818       0.34487568       0.00581751       7.32384214
O        2.91000000       8.77000000      17.69000000      -0.90224400      -1.01101800       1.71128100      -1.52005076       0.40052183       1.70277948       1.54084463
O        1.53000000       7.70000000      19.87000000       1.03883900       0.03412100      -3.82513300      -0.34480594       1.31482064      -1.80998135       2.75961973
O        1.10000000       0.41000000      19.14000000      -1.75293400       1.70096900      -0.41015300      -2.41156020       2.05415152       0.79445442       1.41760551
O        9.50000000       8.28000000      15.90000000       1.49116100      -1.44540900      -0.70179400       1.38899053      -1.27821223      -1.11037990       0.45314016
O        9.53000000       5.75000000      16.23000000      -0.01241600       1.22726600       1.22550400      -0.20576195       1.13895940       0.64665293       0.61664355
O        8.93000000       0.61000000      21.07000000       0.22392300      -0.37007200       0.08074500       0.13998047      -0.47461273       2.30694246       2.23023099
O        8.92000000       9.77000000      34.11000000       0.30458900       0.63952400      -3.42705600       0.30308338       0.42045983      -0.35268877       3.08216243
O        0.33000000       1.85000000      31.95000000      -0.40088400      -0.58027600      -3.13695100       0.08427077       0.34036623       0.02082826       3.32483490
Si       4.99000000       0.77000000       1.15000000       5.57651800       0.23220800      -1.36100300       5.16441944       0.22876087      -0.55216450       0.90777576
Si       0.77000000       1.70000000       0.84000000      -5.21707800       1.78457200       1.79278100      -4.80980429       2.34539271       2.70608911       1.14652669
Si       5.44000000       2.99000000       2.84000000       0.31618700      -0.09786100       0.65660800      -0.11930384       0.15073704       0.72387333       0.50594257
Si       0.33000000       9.79000000       3.21000000       1.12021900      -1.27858900      -0.71679200       1.15981561      -1.37129927      -0.92979997       0.23565967
Si       1.84000000       4.73000000       1.55000000      -1.04780400      -0.65297100       1.42466500       0.20081436       1.28861181       0.26293012       2.58426383
Si       5.44000000       8.13000000       1.37000000      -1.98474000       0.19812900       0.68008200      -2.36318725      -0.12180662       1.54803624       0.99946270
Si       8.47000000       7.66000000       1.57000000      -0.14716900       0.63059100       1.71978100       0.87531635       0.08724820       2.16307509       1.23984166
Si       6.32000000       5.92000000       2.89000000       1.07339700      -1.21972200      -0.49217400       0.90943000      -1.17943787      -0.41299785       0.18648553
Si       2.91000000       4.12000000       4.32000000       1.34026300      -0.63635300       1.24634600       1.18812190      -0.04784847      -0.05594206       1.43716342
Si       8.04000000       1.74000000       4.18000000      -2.63156200      -1.12528500      -0.02228300      -2.38046195      -1.16968010      -0.31547480       0.38856607
Si       0.07000000       3.45000000       5.30000000       1.64317100       0.38906900      -2.19241100       1.89743765       0.48754495      -2.74684887       0.61785953
Si       6.96000000       0.89000000       7.09000000       1.34913500      -1.26723000       2.82443000       1.45396265      -1.27133031       2.51160745       0.32994484
Si       2.41000000       8.28000000       5.19000000      -2.40185900      -1.51219000      -0.21955700      -2.43815027      -1.55254399      -0.72486919       0.50821837
Si       5.08000000       6.76000000       5.35000000       0.52954600       1.42910200       1.37861000       0.43391497       1.22294064       0.96121676       0.47525248
Si       3.35000000       4.88000000       7.26000000       0.75681500       1.52713200      -0.85089700       0.71261520       1.48400817      -1.36818192       0.52095775
Si       0.03000000       6.43000000       6.25000000      -0.56734800       1.05549300      -3.02985000      -0.44243613       0.90160830      -3.46604560       0.47911385
Si       7.56000000       7.88000000       6.41000000      -0.32199200       2.13364000      -0.55521300      -0.18097684       2.06984762      -0.79658242       0.28672974
Si       1.48000000       2.47000000       7.57000000       0.15769100      -1.49150600      -0.44204600       0.36388943      -1.45842563      -0.83728407       0.44701816
Si       4.15000000       2.15000000       7.73000000       3.09792500       1.39017600       2.56139300       3.03959565       1.37544130       2.27001464       0.29752440
Si       4.85000000       1.88000000      10.61000000       1.31508300       1.09969500      -0.88684800       1.46625083       1.08004012      -1.03545123       0.21288717
Si       7.57000000       3.03000000       9.14000000      -2.47091800      -0.41959900      -0.41212700      -2.45731810      -0.43944032      -0.69205109       0.28095575
Si       0.36000000       2.45000000      10.19000000      -0.52611800      -2.41573700       0.27156100      -0.53324420      -2.44462114       0.13256892       0.14214034
Si       2.90000000       7.96000000       7.96000000      -1.43403400      -1.21349700       1.45366500      -1.44728504      -1.25870013       1.07681920       0.37977845
Si       5.02000000       8.66000000      10.21000000       0.42232800       3.05847800      -0.73724100       0.53000634       3.01694377      -0.92130484       0.21725380
Si       1.89000000       4.77000000      10.99000000      -2.19721400       4.14105000       3.94695000      -2.21631902       4.03780551       3.88847428       0.12018251
Si       4.72000000       6.09000000      10.76000000       0.05465000       0.72716500      -0.79825000       0.20806006       0.83696510      -1.10663792       0.36151600
Si       6.31000000       5.71000000       7.94000000       0.80741700      -0.51722800      -0.51506600       1.02036826      -0.59303207      -0.84451452       0.39953826
Si       0.41000000       7.05000000       9.21000000       1.82152900      -0.73130600       0.27091600       1.88430626      -0.76770386      -0.02804893       0.30764560
Si       7.93000000       8.25000000      10.75000000      -0.01881000       1.60760100       0.97332500       0.03657108       1.52511726       0.87752255       0.13801718
Si       5.07000000       4.02000000      12.92000000       0.29744100       0.18456700       1.34834100       0.33437119       0.01093263       1.17760462       0.24629991
Si       2.39000000       3.55000000      13.88000000      -1.65027400      -0.58008100       2.28457600      -1.71812123      -0.76775732       2.47884238       0.27850507
Si       3.13000000       0.26000000      14.17000000       0.28844400       5.15165000       1.59408500       0.32499529       4.93974333       1.64531598       0.22105440
Si       8.85000000       0.80000000      12.39000000      -0.34372700       1.30190100       1.44850800      -0.23463999       1.31505142       1.50492850       0.12351591
Si       7.96000000       3.68000000      13.31000000      -1.20267500       2.10868000       1.04416000      -0.97700382       2.02607562       1.03548409       0.24047087
Si       8.43000000       9.16000000      14.97000000       1.36914900      -2.27059600       0.94740300       1.57977969      -2.22415476       1.18393336       0.32010730
Si       7.42000000       0.72000000      17.44000000       1.91539600      -7.66766900       1.49000300       2.18723011      -7.48375890       2.26482382       0.84146539
Si       3.09000000       7.89000000      15.81000000       3.94920000       1.92898000       0.97626900       3.94171978       2.39661997       1.15717218       0.50146690
Si       2.21000000       9.32000000      19.00000000       3.78403000      -3.79935100       0.29339200       3.79273666      -3.87707109       1.04316992       0.75384557
Si       1.31000000       6.13000000      19.63000000       1.09206600       0.77125800      -2.27380400       0.16309969       1.11795810      -0.68593321       1.87203445
Si       0.42000000       6.88000000      15.52000000      -1.41462600       5.25147700       1.71705200      -1.22003124       5.33224591       2.00170793       0.35414649
Si       0.05000000       4.35000000      15.81000000      -3.43496600      -6.20609800      -1.86577300      -3.44449512      -6.23267398      -1.54832907       0.31869693
Si       5.20000000       2.74000000      17.72000000      -1.08945200      -3.42751200      -2.66924200      -0.82762523      -4.31417854      -2.02885030       1.12464765
Si       9.67000000       0.97000000      19.65000000      -4.15367200      -1.61432000      -3.38061600      -3.96443860      -1.70419788      -2.25717854       1.14280315
Si       8.05000000       0.82000000      22.45000000      -0.76250600       1.17003000      -3.74578800      -0.50406784       1.08226697      -1.92033565       1.84574346
150
Lattice="10.0 0.0 0.0 0.0 10.0 0.0 0.0 0.0 45.89" Properties=species:S:1:pos:R:3:reference_force:R:3:predicted_force:R:3:force_error_norm:R:1 case_id=dft/etch/trj_CF2_30eV.extxyz:874 model=deepmd selection=prior_outlier pbc="T T T"
C        1.01000000       4.86000000      18.26000000      -0.76906700       0.96450900      -1.46918300      -0.39495627       0.75952605      -0.31946597       1.22630587
C        7.74000000       6.64000000      20.93000000      -1.88744600      -2.46534900      -1.38636900      -2.11044177      -2.23885462       0.34769943       1.76295778
F        6.01000000       9.08000000      15.05000000       0.51287300       1.91326100       1.73070400       0.48475255       2.09771121       0.94631100       0.80627850
F        0.05000000       1.03000000      17.25000000       0.10933400       1.93302100       0.83549000      -0.32173593       1.05645513       0.68030930       0.98907535
F        1.14000000       5.14000000      19.59000000      -0.94841400      -1.43873200      -9.16859800       0.48051497      -1.25120333      -1.09853699       8.19773686
F        7.65000000       3.99000000      19.97000000       0.47372100       0.71744400      -4.49146700      -0.50885318      -0.02501202      -2.63847706       2.22491902
F        3.73000000       6.03000000      17.78000000      -4.32303900      -1.04471700       1.04734800      -2.13048171      -0.13860825       1.10740637       2.37317246
F        1.27000000       8.59000000      17.66000000      -2.22503200      -1.66943900       1.11036000      -1.91421667      -0.30714967       1.16488948       1.39836041
F        0.49000000       6.66000000      21.40000000      -1.93074700       1.63808300      -3.63692600      -1.95686045       2.37738520       0.05554627       3.76584667
F        5.74000000       7.57000000      17.48000000       0.81933500      -0.37499600      -0.43069400       0.84035834       0.10298376      -0.37997144       0.48112307
F        9.00000000       6.87000000      18.81000000       2.82543700      -0.89406700      -2.71543500       0.92741700       1.22068876      -1.32260508       3.16459271
F        5.94000000       0.67000000      22.90000000      -0.11365500       1.85621000      -3.78406200      -0.12419149       1.83194643      -1.22277897       2.56141962
F        3.30000000       4.41000000      23.40000000       1.66313200       0.36856300      -4.46786200       1.70290753       0.28169480      -1.45688086       3.01249657
F        7.37000000       2.08000000      21.21000000      -0.69272800      -0.48565700      -1.67091900      -1.02856323      -0.83744740       0.67946116       2.40017263
F        4.24000000       5.43000000      21.13000000       0.72103300      -1.56456600       0.04994200       1.13446057      -1.60495090       2.77561619       2.75714583
F        8.75000000       8.84000000      22.13000000       0.18314600      -0.74900400      -1.55692600       0.05383588      -0.26797076       1.28746263       2.88767393
F        8.02000000       6.66000000      24.53000000      -1.57156300       1.76498800      -4.06853200      -1.62253593       1.84539703      -1.06439639       3.00564379
F        6.99000000       4.91000000      25.44000000      -1.34582600       0.74941100      -2.65979300      -1.30183297       0.59632210       0.29804268       2.96212146
F        5.68000000       7.21000000      25.89000000       0.91466900      -0.09959500      -3.97231100       0.87111864       0.03659781      -1.02263307       2.95314155
F        2.86000000       2.35000000      19.30000000      -0.65620200       1.62308300      -2.15888700       0.67112313       0.06389265      -0.01937099       2.96148532
F        8.14000000       5.49000000      21.58000000       2.34422400       0.29186100      -1.41677900       2.32503562      -0.21592242       1.75025529       3.20754086
O        2.22000000       4.14000000       0.67000000      -0.37228800       1.02526900      -3.16902500      -0.07634595      -0.41363765       0.69540066       4.13422541
O        3.09000000       2.00000000       2.08000000       1.79145300      -1.52051300       1.69369900       0.70013891       0.81937724       0.48169184       2.85219461
O        0.98000000       3.17000000       2.95000000      -0.71171100      -1.28881900       1.02170200       0.74378707      -0.37223116      -1.00555926       2.65864554
O        4.40000000       2.90000000       1.96000000       2.36455100      -2.05422000       0.96869200      -0.10426113      -0.83345257       0.31957211       2.82960476
O        6.44000000       1.24000000       1.57000000       0.76302700      -0.03039700      -0.14551600       0.58480753       0.24276870       0.56370469       0.78062517
O        8.84000000       0.32000000       1.56000000       0.37170400      -0.83806100      -0.27129700       0.86399348      -0.55896263       0.32013823       0.81855999
O        8.36000000       2.64000000       2.98000000      -1.37104200      -2.03051900      -1.26872200      -0.89953433      -1.83870692      -1.51666766       0.56620527
O        7.45000000       0.42000000       3.94000000       0.86765800      -0.22010600      -1.52006500       0.86068879      -0.10153329      -1.72333550       0.23542930
O        9.14000000       4.55000000       4.39000000      -0.25223800      -0.35459300      -0.33490800       0.22168928      -0.33615282      -1.11135238       0.90984229
O        2.97000000       4.75000000       3.10000000       2.30995000       0.95058900       3.67902100       1.52147158       0.44831473       0.97558952       2.86051034
O        1.03000000       8.80000000       2.01000000      -0.95479200       1.01216900       0.31842700      -0.68861860       0.97236923       0.58749304       0.38056384
O        2.80000000       7.13000000       2.40000000       2.01906000       1.49855800       0.97522300       1.65083520       0.09676213       0.55555227       1.50888856
O        0.40000000       6.78000000       3.56000000      -1.92606600      -0.42109400       1.20001300      -1.46540465      -1.08155094       0.55401162       1.03234201
O        5.30000000       5.60000000       1.89000000       1.01324400       0.94493400      -1.22787000      -0.47450329       0.25028569      -1.06017555       1.65046954
O        7.87000000       6.91000000       4.20000000      -1.07981400       0.12558200      -1.09936300      -0.98864746      -0.01253300      -1.45863912       0.39555837
O        4.91000000       6.64000000       4.05000000       0.69730200       0.55286400      -0.33814000       0.29919036       0.14876124      -0.91534405       0.80929379
O        4.87000000       3.34000000       5.06000000       0.29083500      -1.05261600       1.35226400      -0.08636119      -0.95996661       0.33166753       1.09200642
O        2.57000000       1.85000000       5.15000000       1.53764300      -1.32726400       0.56266300       1.64615918      -0.95104638      -0.60336510       1.23001503
O        1.60000000       3.88000000       6.50000000       1.27495300      -0.53624700       0.82822800       1.42077650      -0.43421412      -0.27113573       1.11367671
O        0.96000000       1.48000000       7.44000000       0.38647200      -0.06124100       0.74986800       0.39869637      -0.01668621      -0.05409982       0.80529424
O        3.99000000       1.75000000       7.25000000       0.06595700       0.95699600      -0.00215900       0.02987514       1.03082414      -0.78276410       0.78491835
O        9.94000000       2.33000000       5.16000000      -0.09030500      -1.35173400       0.73418600       0.24531831      -1.16649336      -0.06157219       0.88328262
O        5.18000000       0.66000000       5.24000000      -0.56897600       0.27502600      -0.14726200      -0.72246293       0.44349926      -0.85503702       0.74356368
O        6.91000000       3.33000000       6.72000000      -1.44491300       0.79122100       0.74715600      -1.46100174       0.70555602      -0.06454941       0.81637185
O        7.47000000       0.71000000       6.50000000       0.68002100      -0.30287000       0.90093500       0.68261199      -0.14929066       0.26347242       0.65570715
O        8.54000000       2.35000000       8.27000000       0.28545000      -1.16622600       0.75317000       0.23566712      -1.19174736      -0.16725942       0.92212797
O        1.92000000       8.46000000       4.76000000       0.54810100      -0.66534600       0.31644000       0.61928337      -0.79459441      -0.32497123       0.65816446
O        4.41000000       4.47000000       7.24000000       0.03027600       0.23004000       1.43843000      -0.12118043       0.23382933       0.44317949       1.00671594
O        2.69000000       6.25000000       6.17000000      -0.39396100      -0.33332500       0.81276500      -0.40211652      -0.54630866      -0.20150679       1.03642453
O        3.41000000       8.52000000       7.09000000       1.23366400       0.67440000       0.81367000       1.34652105       0.70266838       0.02556660       0.79664470
O        0.88000000       8.25000000       7.13000000      -0.99178400      -1.07252800       1.83522100      -0.97655910      -1.06822502       1.03831497       0.79706306
O        6.23000000       5.67000000       5.85000000       1.11592000       0.31363100       1.39669500       0.95244745       0.09750420       0.65048902       0.79388755
O        6.29000000       8.47000000       5.35000000       0.68032400      -0.98335400       0.70453800       0.60461293      -0.88914484       0.16399582       0.55388932
O        9.48000000       6.38000000       6.13000000      -0.63182300      -1.01710100      -1.59226900      -0.43833070      -1.10320196      -2.29036046       0.72950965
O        8.36000000       8.02000000       7.90000000       0.19374200      -1.71025900       0.67263700       0.14511664      -1.67690930      -0.09065414       0.76556515
O        6.00000000       8.91000000       8.22000000      -2.06600900      -0.97416400       0.34263300      -2.08854857      -0.99390284      -0.51066211       0.85382094
O        0.04000000       6.03000000       8.67000000      -0.09373400       0.73841400       0.51441900      -0.02716697       0.67991876      -0.39424055       0.91297045
O        3.79000000       0.04000000       9.25000000       1.83240800       0.50763700      -0.15725100       1.85579480       0.54786879      -1.05209325       0.89605144
O        4.28000000       2.58000000       9.99000000       0.23970100      -0.46566300      -0.11424800       0.24584409      -0.44237096      -0.99068488       0.87676785
O        3.16000000       3.38000000      11.96000000      -0.53209700       2.07193400       1.99300400      -0.42171658       2.04194505       0.97353540       1.02586519
O        0.44000000       3.47000000       9.38000000       0.87652900      -0.72754000       0.47589300       0.91123249      -0.63156219      -0.46533826       0.94674831
O        0.05000000       0.90000000      10.05000000      -0.21798000       1.13256000      -0.21145900      -0.25666139       1.12471089      -1.08381544       0.87324889
O        6.10000000       1.38000000       8.60000000       2.04915200       1.09140000       0.54537100       2.04143938       1.12388132      -0.33868423       0.88468535
O        7.76000000       1.60000000      11.36000000       0.89146400      -1.68683700       0.62109600       0.81129507      -1.68862006      -0.31872865       0.94323942
O        5.98000000       3.19000000      12.16000000      -1.89743800       0.69645100       0.22732200      -1.91347702       0.74291538      -0.68327215       0.91191990
O        2.52000000       5.13000000       8.58000000      -0.31378300      -0.39237600       0.67673500      -0.32628608      -0.40428100      -0.22425184       0.90115223
O        4.07000000       7.26000000       9.24000000       1.27409600      -0.30355100       0.64033700       1.25353846      -0.44319731      -0.16557117       0.81817583
O        1.56000000       5.34000000      10.83000000      -0.41497000      -0.70694900       2.80665300      -0.32992011      -0.66738235       1.82704312       0.98409070
O        4.18000000       7.17000000      11.65000000       2.15386900       1.48135000       0.40899300       2.19135557       1.54359592      -0.46547689       0.87748355
O        5.01000000       4.98000000      10.61000000       0.60802700       1.82386300       0.14572900       0.59642437       1.83961996      -0.79187134       0.93780451
O        1.54000000       7.97000000      12.18000000      -1.04660400       0.44456100       0.68097900      -0.96550035       0.54438940      -0.34087684       1.02991887
O        8.06000000       9.35000000       9.93000000      -1.28609100      -1.13421700       1.16709000      -1.31166120      -1.12632750       0.28722281       0.88027402
O        6.51000000       7.27000000      10.18000000       1.32181900      -0.65066300       0.36348000       1.28836556      -0.67762340      -0.50332334       0.86786751
O        9.41000000       9.69000000      12.37000000      -0.35382900       0.08559300      -0.17108400      -0.39803101       0.15415680      -1.03183378       0.86460684
O        0.77000000       4.01000000      13.12000000       1.04644500       0.68742700       0.45758500       1.14054247       0.61668272      -0.93961500       1.40215082
O        2.44000000       4.63000000      15.73000000      -2.42318700      -3.09329800       1.46855400      -1.02921820      -3.00517494      -0.93470664       2.77967199
O        3.12000000       9.61000000      16.23000000       1.02101100      -0.45513000       1.83138000       1.28416395      -0.41474036       1.65104452       0.32156132
O        5.25000000       1.52000000      15.94000000      -1.25953000      -0.49928100       1.29944700      -1.10730412      -0.69241961       1.04655390       0.35274660
O        2.80000000       1.98000000      16.47000000      -1.80442600       2.88548000       0.18159200      -0.83967164       1.49468346      -0.44178067       1.80379031
O        6.51000000       1.18000000      13.72000000       0.60280700      -0.10761000       2.03879700       0.56639425      -0.15112152       1.24065187       0.80015923
O        0.47000000       2.76000000      15.31000000      -2.16955100       1.35435000       0.26732300      -2.51834788       0.48570168      -1.37782220       1.89280529
O        8.45000000       3.16000000      13.29000000      -0.64593900       0.07170900       2.76414500      -0.91112418      -0.07734916       1.65003425       1.15489579
O        1.09000000       9.25000000      14.56000000      -0.31303700      -1.55493500      -0.33649000      -0.28054646      -1.38948881      -1.15112385       0.83189926
O        2.79000000       5.91000000      13.00000000      -1.69408000      -3.47253100       2.33044300      -1.52757985      -3.35978666       1.22483970       1.12374030
O        3.50000000       8.60000000      13.83000000      -0.84647400      -1.65922200       0.37463600      -0.66745357      -1.51904672      -0.50564230       0.90916847
O        4.83000000       5.72000000      15.86000000       3.44287500      -0.11825500      -1.64683600       3.92902410       0.06928842      -2.22152241       0.77574348
O        2.52000000       7.06000000      15.57000000      -1.05340900      -0.23975100       2.32965500      -0.46849067       0.59568477       1.17125124       1.54336698
O        9.53000000       5.26000000      15.17000000       0.77735100      -2.14604100       1.13874000      -0.03073566      -1.84379102      -0.85746517       2.17467105
O        9.19000000       7.44000000      13.78000000       2.33326300       1.78346200      -1.02134500       2.18346009       2.07049182      -2.06035847       1.08829041
O        7.30000000       6.45000000      15.30000000      -0.01291000       0.57002600       2.95272400      -0.42730423       0.80567128       2.27873132       0.82554067
O        9.33000000       7.80000000      16.49000000       0.49716700      -1.81741900       0.17024500      -0.07667796      -0.87162471      -0.67326137       1.39116062
O        4.40000000       0.55000000      18.29000000      -0.32753100       1.18623800      -2.30530500       0.03763950       0.92934141      -1.39961046       1.00976628
O        5.25000000       3.26000000      18.55000000       1.55060600      -0.53009300      -0.13423100       1.80883968      -1.02418166       0.80301220       1.09051962
O        1.58000000       3.80000000      17.85000000      -3.78546000       4.28133100       1.00113900      -1.00744504      -0.73689536       0.22637388       5.78793780
O        4.70000000       1.55000000      20.74000000       1.45512400       1.13953900      -2.09166800       1.77281020       0.84480035       0.16496683       2.29786774
O        6.58000000       6.41000000      20.63000000       0.93808700       2.73453200      -2.81100100       0.65516441       3.21274901      -0.94605969       1.94595550
O        8.01000000       0.69000000      15.94000000      -2.84732800       1.10611100      -1.12657400      -3.22938325       0.98441953      -1.55499035       0.58678412
O        7.65000000       2.23000000      18.13000000       1.55460400       0.93599700      -1.42357900       0.87383574       0.30758148      -0.69678750       1.17753020
O        9.81000000       8.95000000      19.94000000       0.77838300      -2.53205600      -3.59309700       0.62931357      -2.14300807      -1.55151411       2.08366040
O        8.28000000       9.52000000      18.21000000       1.28132400      -0.67516800      -1.34483900       0.81957546      -0.05738916      -0.84718128       0.91789194
O        6.69000000       5.08000000      17.69000000       1.84372500       0.55355600      -1.40741300       1.25630555       0.48971741      -1.12669799       0.65416962
O        5.65000000       3.42000000      22.72000000       0.60543000      -2.54708600      -4.70065800       0.59665683      -2.58631121      -2.13543181       2.56554107
O        5.40000000       5.81000000      23.83000000      -6.17903800      -3.12836500     -11.26610700      -6.33590786      -3.09201096      -8.55223821       2.71864186
Si       5.96000000       5.22000000       0.50000000       0.75114400      -0.50959300      -1.80254300       0.15867666      -0.98864439      -0.60447911       1.41981156
Si       2.32000000       3.55000000       2.17000000       1.07311400      -0.86906900       1.38839700       1.24424371       1.01083595      -3.18082847       4.94379909
Si       5.38000000       2.22000000       0.79000000       1.38768600      -0.20074200      -1.20481300       0.17176418       0.53341382      -0.31833420       1.67430442
Si       7.82000000       1.13000000       2.51000000      -0.92382600       0.15804900       0.31508300      -0.94083216       0.61770301       0.42558719       0.47305623
Si       9.68000000       3.11000000       3.75000000      -2.86967500       1.60825400       3.63695600      -2.27350426       1.86907809       2.99987998       0.91066713
Si       3.98000000       6.02000000       2.80000000      -0.77903800       1.62998800       2.93451000      -1.79719481       0.31058045       2.39317289       1.75229148
Si       1.56000000       7.85000000       3.23000000       0.65949800       0.21193400       0.86465300       0.96844963      -0.44375833       0.70433270       0.74235176
Si       9.93000000       9.23000000       0.85000000      -0.39398800       0.16409200      -0.91291400      -0.13710186       0.33431329       0.16930054       1.12523513
Si       9.22000000       6.13000000       4.52000000       2.17328600       0.27977000       1.03397400       2.32829711       0.02267997       0.51046872       0.60347453
Si       6.39000000       6.90000000       4.82000000      -2.55691900       1.82482800       0.32916700      -2.72624089       1.70785314      -0.04403302       0.42618221
Si       4.19000000       1.87000000       5.53000000      -0.88355400       0.82898400       2.89698600      -1.13365031       1.00741643       2.26552050       0.70223570
Si       1.30000000       2.28000000       6.04000000      -0.43276700       1.59609400       1.70942200      -0.39893708       1.67942086       0.99844278       0.71664446
Si       6.69000000       0.06000000       5.29000000      -1.65293700      -1.86431300      -0.54239700      -1.69836743      -1.88734624      -0.89661392       0.35786042
Si       5.64000000       4.24000000       6.25000000       0.33892600      -1.05504600      -1.07566200       0.20765942      -0.91672765      -1.45565846       0.42515902
Si       7.16000000       1.94000000       7.49000000       2.37906000      -0.14812600       2.55024100       2.36474615      -0.04798587       2.14815276       0.41461776
Si       2.85000000       4.86000000       7.02000000      -1.53368400       0.33821100       1.05008900      -1.55037607       0.37936147       0.53148743       0.52049935
Si       2.20000000       7.79000000       6.32000000       0.83807800       1.63118100      -1.51575800       0.78896151       1.58079334      -2.12736064       0.61563717
Si       4.34000000       8.65000000       8.43000000      -0.77418300       1.24629800       0.83944000      -0.83977762       1.29849718       0.45416089       0.39429355
Si       9.68000000       7.15000000       7.47000000       0.59135500       0.44427100       2.99914900       0.60295327       0.37577073       2.59536824       0.40971418
Si       4.54000000       1.55000000       8.79000000      -2.43917900      -2.56057800       0.37757500      -2.52931911      -2.54067876      -0.07109413       0.45806681
Si       4.64000000       3.56000000      11.22000000       0.09060900      -1.27592000       1.59250500       0.11368044      -1.36853848       1.25085430       0.35473325
Si       0.10000000       1.99000000       8.72000000      -2.39618600      -0.03892300       2.88521000      -2.34513931      -0.05221155       2.44137449       0.44695895
Si       2.02000000       4.61000000      12.26000000       0.89345300       0.92804600       0.23857400       0.87994230       0.85384917      -0.10124191       0.34808413
Si       8.75000000       0.33000000      10.97000000       2.04062400       1.44327900      -0.07560300       2.06057093       1.50451126      -0.34172370       0.27380193
Si       1.11000000       4.94000000       9.34000000      -0.86012800       0.79561700       0.03954600      -0.87543680       0.80741774      -0.39200803       0.43198669
Si       5.06000000       6.60000000      10.44000000      -2.32765200       0.46000900      -0.36943000      -2.27307098       0.46330869      -0.80816658       0.44213093
Si       7.22000000       8.25000000       9.03000000       0.65244200       1.47384800       1.83079300       0.76284019       1.49130695       1.44425995       0.40236846
Si       3.94000000       0.81000000      16.70000000       0.19017300       3.78804400       1.72658500       0.27285467       3.86197392       1.88663849       0.19472805
Si       1.72000000       3.19000000      16.13000000       3.82522600       1.46529900       3.92731600       4.07863030       0.89806084       3.56770098       0.71784109
Si       7.16000000       2.24000000      12.71000000       0.61589200       1.20296100      -0.08305500       0.72831119       1.08238588      -0.10936398       0.16693889
Si       9.61000000       3.81000000      14.25000000       1.51380000       1.65641000       0.34902700       1.31470447       1.49883321       0.20675699       0.29105022
Si       6.44000000       0.69000000      15.31000000       2.56551300      -2.78424700      -3.31156100       2.68916736      -2.84712401      -3.12774580       0.23028667
Si       3.02000000       7.45000000      12.67000000       0.23912400       1.66522600       1.83221300       0.18651612       1.69823604       1.65202846       0.19058782
Si       2.52000000       8.65000000      15.24000000      -2.29669000      -2.75604000      -5.90882100      -2.19019328      -2.63180523      -5.86041074       0.17064402
Si       3.33000000       5.82000000      16.23000000      -1.50962000       1.67212100       1.41937900      -0.99535909       1.80410658       1.14211132       0.59896731
Si       0.34000000       8.58000000      13.10000000      -0.33831500      -0.08955700       3.58135600      -0.47453226      -0.04748247       3.42613161       0.21076058
Si       8.98000000       6.84000000      15.24000000      -2.22526600      -1.88925900       1.24070900      -2.48822502      -1.63635623       0.95523539       0.46325203
Si       6.19000000       6.34000000      16.57000000       1.16819700      -2.92860200      -0.86645300       1.05008190      -2.93489096      -0.66197674       0.23622293
Si       4.42000000       1.97000000      19.13000000      -1.06992600       0.63741800       1.28420300      -0.76389258       0.52694295       1.84152957       0.64534804
Si       8.44000000       0.97000000      17.48000000       1.40120300      -1.70570600      -0.26885300       1.13793599      -2.02754315       0.18502605       0.61554436
Si       7.04000000       3.70000000      18.49000000      -3.84468200       1.02190400       0.41643000      -4.05991890       0.78706630       1.16529558       0.81380300
Si       9.30000000       7.84000000      21.02000000       1.45500400      -1.29906000      -2.05463500       1.39403789      -0.46450062      -1.00572492       1.34179677
Si       9.62000000       8.33000000      18.05000000      -0.33504800      -0.11922300       2.01313300      -0.82092097       0.63416923       2.98375308       1.32127807
Si       5.89000000       1.93000000      21.82000000      -0.12370500      -0.21562700       0.47940100      -0.15500175      -0.37217010       1.63268893       1.16428445
Si       4.74000000       4.71000000      22.58000000      -3.11179600       3.09460300       0.52728700      -2.82290244       3.03084731       2.08290434       1.58349916
Si       6.41000000       6.34000000      24.72000000       7.60973500      -0.74958500       6.25208300       7.58679776      -0.75259067       7.87649945       1.62458116
150
Lattice="10.0 0.0 0.0 0.0 10.0 0.0 0.0 0.0 43.86" Properties=species:S:1:pos:R:3:reference_force:R:3:predicted_force:R:3:force_error_norm:R:1 case_id=dft/etch/trj_CF2_30eV.extxyz:292 model=deepmd selection=prior_outlier pbc="T T T"
C        1.13000000       8.07000000      13.33000000      -7.98002600       4.21176000     -13.97321000      -8.11653086       4.29206941     -13.79704867       0.23688814
F        7.70000000       9.32000000      16.11000000      -0.80899200       0.31012600       1.73248200      -1.09699423       0.52766648       0.19889171       1.57548987
F        7.19000000       7.56000000      13.65000000       0.59290000      -0.00666300      -0.81979000       0.50915023       0.01134083      -2.16522868       1.34816297
F        8.42000000       4.71000000      13.57000000      -0.17994300      -0.07172300       1.14369000      -0.29492855      -0.05918268      -0.12885392       1.27778987
F        1.84000000       0.45000000      16.72000000      -0.12853700       0.46062900       2.87231800       0.01256362       0.79074005       1.32819602       1.58530609
F        3.16000000       9.54000000      15.14000000       1.15478100       0.06902800       0.01803700       1.22534050       0.26534391      -1.33122650       1.36529505
F        3.67000000       2.47000000      18.62000000       0.45583900      -2.54879800       0.97909100       0.68959819      -2.05292863       0.53236556       0.70717283
F        9.65000000       0.35000000      17.56000000      -0.97707500      -0.08063300       1.74191000      -1.18999727       0.61954528      -0.30576910       2.17452873
F        9.43000000       3.17000000      18.36000000       0.31936800      -0.82255300       1.30136700       0.08171412      -0.54091862       0.46466484       0.91425805
F        7.34000000       7.27000000      21.53000000       3.62744800       2.08953300      -0.87284900       0.22073576      -0.02830721       0.18411377       4.14826538
F        5.01000000       7.72000000      20.61000000       4.23636700      -0.04804000       1.02691400       4.59327997      -0.42424353       1.43588867       0.66043640
F        3.00000000       6.81000000      19.69000000      -0.24807200       2.73589800      -0.00511900       0.93404610       1.41262050      -1.03706153       2.05264998
F        7.67000000       6.96000000      16.94000000       0.06663800      -0.40901800       2.19196000      -0.43855959      -0.62327302       0.60334478       1.68072250
F        3.21000000       2.63000000      22.59000000      -2.53486700       1.88641500      -2.68080900      -1.72823083       2.61107032      -0.09090431       2.80773816
F        2.20000000       9.51000000      23.86000000      -5.30384700      -3.55322900      -9.24779800      -1.87719106      -2.07254181      -2.90335442       7.36113917
F        8.88000000       5.59000000      23.68000000       2.31685300       2.80441100      -3.92857700       1.05062065       0.75428811       0.43440884       4.98417432
F        1.33000000       3.12000000      20.81000000       0.93749600       0.39772700       2.53452900       1.43095736       1.18325232       3.14662509       1.11140261
F        2.16000000       5.38000000      21.74000000       0.30930700      -0.93870700      -1.06472600       1.58834216      -2.85834562       0.27788777       2.66899890
F        7.84000000       5.31000000      19.83000000       1.15719200       2.53348300       1.23254000       0.25259858       1.42701217       1.10978329       1.43444629
F        5.97000000       1.51000000      18.60000000       0.68119700      -1.61731700       1.54088900       0.32405975      -1.14583518       0.99383142       0.80567619
O        1.35000000       1.52000000       0.86000000       1.20932600      -0.08715400      -3.53718700      -1.07297677      -0.15544378      -0.02769857       4.18689365
O        4.87000000       4.01000000       0.50000000      -1.00226100       1.25101500      -2.46307100      -0.24496859      -0.01534490       0.27587125       3.11110332
O        3.37000000       0.17000000       1.17000000      -0.28759200      -2.23828500      -2.62722100      -0.19074985      -1.19984554      -0.66270223       2.22420074
O        0.78000000       3.05000000       2.93000000      -0.50598900      -0.70772800      -0.64905700      -1.18383301      -1.80648341      -0.76882917       1.29656520
O        3.96000000       1.95000000       2.99000000      -0.96665300      -0.45962400      -0.78310000      -0.35524277      -0.72022270      -0.90297090       0.67535412
O        0.84000000       0.18000000       3.17000000       0.20355300       0.41707200       0.67109900      -0.75073810       1.21857622       0.57874860       1.24964360
O        4.66000000       9.33000000       3.33000000      -1.44885000       0.18206700      -0.51314800      -0.92355743       1.11528666      -0.69868749       1.08685607
O        6.10000000       1.08000000       1.86000000      -2.62995800      -1.37619600       0.56011900      -0.70806716      -0.86472114      -0.94281419       2.49280547
O        8.81000000       1.21000000       2.01000000       1.96627400      -0.02591500       2.41370800       0.11217191       0.75227450       0.48240409       2.78804739
O        5.54000000       4.11000000       3.41000000       0.20816200       0.95888000       0.52712500       0.45770568       0.22866913       0.36466701       0.78858897
O        4.35000000       7.84000000       1.05000000      -0.78012400      -0.88959600      -2.27604800      -0.49935784      -0.24755818      -0.31999883       2.07778020
O        1.64000000       7.88000000       1.44000000      -0.13409400      -0.76558700      -1.97484600      -0.30916807       0.19523729      -0.33221773       1.91103686
O        2.85000000       4.70000000       1.85000000       0.07398700       0.25179300      -1.89431600      -0.45586623      -0.29480172      -0.44191155       1.63981369
O        2.02000000       4.90000000       4.27000000       0.99068800       0.94191400      -0.37670300       0.93648454       0.42456512       0.01396408       0.65054488
O        0.51000000       5.65000000       2.40000000      -1.93189500       1.95872100      -2.03035500      -2.26949668       1.69147787      -1.10720912       1.01862265
O        4.86000000       6.71000000       3.37000000      -0.44292100      -0.46316700      -0.83859000      -0.39639851      -0.34364368      -0.40728482       0.44997147
O        8.91000000       7.41000000       1.58000000       1.05743700      -1.50331700      -2.86958500       0.69753196      -0.41513319      -1.44579782       1.82779801
O        6.73000000       8.25000000       2.37000000      -1.08662200      -1.63624200      -0.83183900      -0.90026127       0.00752567      -0.41125276       1.70692567
O        7.43000000       6.08000000       3.67000000       0.10512000       0.01304800      -0.28446100      -0.04163012      -0.12512829      -0.13764034       0.24936838
O        9.04000000       8.30000000       3.94000000      -0.68016300      -1.92095600      -0.01634700      -0.90295315      -1.03432008      -0.24861290       0.94324236
O        3.79000000       2.99000000       5.25000000      -0.49920500       0.98582100       0.58694300      -0.45735487       0.74046482       0.04525516       0.59613489
O        0.94000000       3.29000000       5.68000000      -0.98791200      -0.63567900       0.97140300      -1.39369869      -0.96675142       0.55968864       0.66616852
O        2.35000000       1.39000000       8.15000000       1.12240500       1.31444100       1.45366400       1.09943893       1.36991985       0.74702218       0.70918827
O        6.14000000       1.72000000       4.35000000       0.09133000       0.35919500       1.71487600       0.49288605       0.09169637       0.31250826       1.48305026
O        4.85000000       1.05000000       8.58000000       0.59593500       0.39180700       0.39537400       0.47687501       0.53569962      -0.35079606       0.76918797
O        8.83000000       0.65000000       4.91000000      -0.45094700      -0.21501500       1.45506300      -0.80251046       0.21701706       0.18483673       1.38698354
O        8.10000000       3.02000000       5.53000000       1.01789600      -0.35741300       1.02075200       0.92412684      -0.58333055       0.14617036       0.90814340
O        6.78000000       0.94000000       6.65000000       0.92894100       0.15988400      -1.44125000       0.77071576       0.19918478      -2.11376963       0.69199886
O        9.84000000       2.02000000       7.45000000       0.14316100       0.05415900       2.45090600       0.07489032       0.08027049       1.87739842       0.57814673
O        1.14000000       9.14000000       5.48000000       0.01978200      -0.97020800       1.51690400      -0.03257172      -0.79096605       1.13585218       0.42434547
O        2.69000000       4.78000000       6.84000000      -0.27838300       0.64876700      -2.00618800      -0.36242693       0.74768523      -2.21382459       0.24486966
O        3.23000000       7.45000000       6.07000000       0.14365400      -0.65907900       0.66631300       0.03752809      -0.46690065       0.30606703       0.42186773
O        0.73000000       6.81000000       6.69000000      -2.13997400      -2.35306400       0.61996100      -2.32415785      -2.30673421       0.17787264       0.48115721
O        1.95000000       8.58000000       8.06000000       0.68222100       0.60262800       0.27078600       0.67449551       0.70931374      -0.14467263       0.42900746
O        4.75000000       5.84000000       8.00000000      -0.76383300      -0.27424000      -0.44828300      -0.63953581      -0.23457245      -0.92778558       0.49693665
O        5.39000000       5.67000000       5.52000000       0.03829700      -0.45431000       0.55320000      -0.11642541      -0.38822598       0.35516770       0.25985172
O        9.04000000       4.61000000       7.20000000       0.76582000       2.29467600       0.83033800       0.64567952       2.45890148       0.29166756       0.57582079
O        5.68000000       7.90000000       6.79000000      -0.08455800      -0.32114600       0.31703600      -0.05265629      -0.08467622      -0.15925088       0.53271462
O        8.29000000       7.43000000       7.45000000       0.76166100      -1.58106400      -0.25521200       0.65338708      -1.45397557      -0.84129642       0.60940106
O        3.84000000       3.67000000       8.66000000       2.62153700      -1.04842500       1.24049900       2.51681883      -1.02349631       0.62953035       0.62037893
O        0.39000000       1.18000000       9.95000000       0.88877500       1.04801300      -1.95033300       0.85346195       1.17858425      -2.71127815       0.77287346
O        3.27000000       2.16000000      10.49000000       2.53248100      -0.87419100       4.07233900       2.41145867      -0.78769274       3.39658924       0.69192926
O        1.21000000       3.12000000      11.46000000      -2.02489800       0.06913400       1.28137300      -2.02752763       0.25556243       0.47757400       0.82513957
O        4.03000000       0.28000000      12.09000000       0.95561100      -0.78260800      -0.29664800       0.86752620      -0.75993904      -1.08395198       0.79254045
O        6.70000000       9.25000000       8.65000000       0.57581700       1.53949500       1.24909700       0.49631743       1.66505434       0.57230210       0.69291894
O        7.29000000       1.83000000       9.03000000       0.25199400      -2.46804600      -2.01723500       0.20712695      -2.37659059      -2.76317721       0.75286580
O        8.46000000       2.78000000      11.03000000       1.11684800       0.15646200       0.72136200       0.97938489       0.21426037      -0.04131135       0.77711479
O        6.01000000       2.21000000      11.28000000      -0.88202700      -0.25092900      -0.45087200      -0.96374794      -0.13617470      -1.16198678       0.72493523
O        6.11000000       8.73000000      11.49000000      -0.72723800      -0.29415300       0.74244700      -0.87370341      -0.22701006      -0.11148208       0.86899665
O        1.37000000       3.74000000       8.89000000      -0.00702800       0.95657200       0.40787300      -0.01308107       1.08255386      -0.19175451       0.61274891
O        2.40000000       6.18000000       9.09000000       1.12310500       1.09963000       1.46640100       1.02296104       1.24719577       0.89487041       0.59870834
O        3.81000000       8.63000000       9.92000000      -0.26400100      -0.73551600       0.52641500      -0.27643099      -0.64545777      -0.14214411       0.67471199
O        1.12000000       8.16000000      10.41000000       0.46026400      -1.96597500       0.74061900       0.41985063      -1.82878286      -0.00731085       0.76148144
O        4.85000000       5.90000000      10.62000000      -0.44957200      -0.59655400      -0.15968800      -0.57820599      -0.47017416      -0.83119204       0.69529579
O        2.88000000       4.93000000      11.97000000       1.21787000       1.52456900       1.10993400       1.18704591       1.65796133       0.32339246       0.79836786
O        0.41000000       5.80000000      11.75000000       0.37996300      -0.79908700       0.27473400       0.33728210      -0.69632277      -0.45647850       0.73963090
O        9.86000000       6.24000000       9.11000000      -0.64383200      -0.56705200       1.98910100      -0.68124791      -0.44796401       1.47511841       0.52892344
O        6.59000000       6.82000000       9.23000000       1.47402100       0.57376100       0.30923900       1.36077501       0.65795070      -0.42104432       0.74379183
O        6.69000000       4.24000000       9.51000000      -0.55696100       0.12780300       0.89251200      -0.65825420       0.19800497       0.10819583       0.79393985
O        8.51000000       7.68000000      11.08000000       1.57987700      -0.98916200       0.82585400       1.46955869      -0.92045190       0.09912017       0.73826369
O        4.57000000       2.56000000      13.14000000      -0.77216600       1.78366300       1.90571000      -0.87478826       1.88127163       1.07370320       0.84397517
O        2.55000000       2.09000000      14.98000000       0.18396600       0.67288700       0.72529300       0.20714932       0.82320486      -0.07962701       0.81916369
O        0.09000000       1.21000000      12.65000000       0.49433500       0.47305500      -1.16451800       0.22353945       0.61301154      -2.01964770       0.90783527
O        8.17000000       9.66000000      12.91000000      -2.11998300      -1.65345800      -1.03827400      -2.31970207      -1.69959570      -1.89657047       0.88243369
O        8.22000000       2.18000000      14.02000000       0.48594400      -2.20389800       1.08812700       0.33592585      -2.18032414       0.29017078       0.81227785
O        6.33000000       3.69000000      14.84000000      -4.91926400       0.71678900      -0.06914500      -5.11492803       0.89542057      -0.78804056       0.76616217
O        9.74000000       0.03000000      14.90000000       1.03992400       0.73833800       0.36883800       0.92965873       0.88264801      -0.62511542       1.01040943
O        8.55000000       4.00000000      16.03000000       1.28319200      -0.21147500       2.01700400       1.00149623      -0.18341686       1.26094236       0.80732210
O        3.88000000       7.62000000      12.35000000      -0.95721300      -1.51705600       1.45561500      -1.03916894      -1.44224834       0.71627319       0.74762242
O        3.49000000       4.40000000      14.69000000       1.36607100       0.61381400       1.91531200       1.33268039       0.78675710       1.20447240       0.73233679
O        1.16000000       4.28000000      13.96000000      -2.17916200       0.87544600      -3.31974800      -2.32641902       0.97098353      -4.31614654       1.01174211
O        5.33000000       5.30000000      12.97000000      -1.99114000      -0.19470000       1.28489200      -2.11219705      -0.02808963       0.48917165       0.82193960
O        4.39000000       0.92000000      16.76000000       4.47593000      -0.20213400       5.73847500       4.61100513       0.02770719       5.01712624       0.76903595
O        3.61000000       9.93000000      19.38000000       0.37261100      -4.51929300       1.95451800       1.37916000      -3.60387470       1.33227127       1.49610245
O        1.23000000       3.83000000      16.39000000      -1.42579000       0.14392200       2.68268800      -1.31988968       0.22783104       2.00119758       0.69475520
O        1.62000000       7.81000000      14.21000000       7.87832900      -4.68737600      15.03038600       7.76854066      -4.59926002      14.01392829       1.02615992
O        9.93000000       8.07000000      16.66000000      -0.78072300      -1.57300500       2.70473300      -0.83399875      -1.43955122       1.26393154       1.44794926
O        9.93000000       5.65000000      17.64000000      -1.06001600       2.60034400       1.66801700      -1.10119081       2.12058287       0.77659696       1.01316129
O        8.96000000       7.62000000      19.32000000       0.81153500      -0.29099400       2.78568100      -0.61858867      -1.73792949       0.11384362       3.35821248
O        9.86000000       8.89000000      21.97000000       4.34964400      -1.71527300       0.60578000       0.86745189      -0.67121826       1.15748900       3.67696818
O        2.25000000       8.45000000      21.26000000      -0.81583300       1.12576900      -2.70527900       5.35374722       0.06324717      -3.01790382       6.26820605
O        9.75000000       5.86000000      21.41000000       1.45643500       3.85036200       0.62313300       0.96698939       0.35242215       1.56013673       3.65419160
O        1.41000000       6.78000000      23.47000000      -0.17396700       8.77072500      -4.55619200       1.67083305       5.55388327       0.43428659       6.21741382
O        0.79000000       4.02000000      23.49000000       2.29126900       2.31141900      -5.91596000       2.34623595       1.81519955      -2.43353567       3.51802989
Si       7.53000000       1.28000000       1.00000000      -1.23297200      -0.51954900      -1.16373400      -0.97716090       0.00393109      -0.59569153       0.81372168
Si       2.91000000       8.60000000       0.72000000       1.50537900       0.60271100      -2.31161200       1.40612359       1.73644781       0.27313365       2.82420270
Si       4.51000000       0.61000000       2.26000000      -0.45484300       0.43045500      -0.07495700       1.15459260       1.17503944       0.56410465       1.88496385
Si       0.46000000       1.52000000       2.20000000       1.95107900       0.19863400       0.96586300       1.30606586       0.27544341      -0.04950255       1.20536668
Si       4.90000000       2.74000000       4.02000000      -0.81568500       0.73889600       1.30002600      -0.77672685       0.52205776       1.00084448       0.37154561
Si       9.95000000       9.58000000       4.44000000       0.89683500      -1.62103500      -0.87202400       0.74499375      -0.92147180      -1.49979867       0.95212681
Si       0.39000000       6.82000000       1.29000000       0.22421700      -0.15864300      -1.02640100       0.08322724      -0.26574684       0.87224222       1.90688107
Si       1.51000000       4.49000000       2.76000000       2.69751300      -1.28134300       0.04420900       3.64121133      -1.84038539       0.40740143       1.15542359
Si       5.09000000       8.02000000       2.50000000       1.54068500      -1.55892900      -0.95771900       1.69435962      -0.62867365       0.18788173       1.48370884
Si       8.00000000       7.44000000       2.93000000       1.25667800       0.65499100       0.79936400       1.11544537       1.31577512       1.65438330       1.08978911
Si       5.87000000       5.60000000       3.97000000      -0.25348000       0.09230000      -0.07337900      -0.34751675      -0.12692190       0.10690394       0.29900349
Si       2.40000000       3.92000000       5.50000000       1.22418400      -0.13466200      -0.17493800       0.93867268       0.17536568      -0.94910837       0.88146108
Si       7.49000000       1.51000000       5.23000000      -0.67105000       0.42676500       3.02639300      -0.65093572       0.54816724       2.39985632       0.63850709
Si       9.48000000       3.24000000       6.44000000       0.21450700       0.04485000      -0.37824800       0.29793162      -0.08554157      -0.76422047       0.41585619
Si       6.41000000       0.76000000       8.17000000       0.15663000      -0.04600900       1.04664900       0.12854036       0.07794095       0.86324571       0.22313535
Si       1.74000000       8.02000000       6.57000000       0.92806300       0.71864300      -1.36401900       0.75566336       1.03688284      -1.62737111       0.44760760
Si       4.61000000       6.69000000       6.53000000       0.66720100      -0.27948000       0.75046700       0.58495326      -0.31414069       0.57200158       0.19953937
Si       2.68000000       4.73000000       8.41000000      -1.55507200       0.26294600       1.49761000      -1.67240887       0.24884289       1.18504302       0.33416307
Si       9.46000000       6.18000000       7.58000000      -0.99075700       1.73133300      -1.47676200      -1.08201211       1.65004619      -1.68469570       0.24118762
Si       6.78000000       7.82000000       7.98000000       1.86774500      -0.66113000       0.01550600       1.79392707      -0.55316915      -0.05981944       0.15092566
Si       1.01000000       2.18000000       8.67000000      -1.65084800      -2.65008200      -1.00288800      -1.78134220      -2.62905779      -1.15684413       0.20291191
Si       3.68000000       2.08000000       8.96000000      -1.24607400      -1.42281800      -1.86982800      -1.44817184      -1.37077048      -1.91392940       0.21330123
Si       4.46000000       1.84000000      11.71000000      -0.74634300      -0.83987400      -0.03401100      -0.69925186      -0.76988421       0.08041091       0.14215668
Si       7.05000000       2.81000000      10.19000000       1.02440800       0.81500300       2.65066100       0.98254403       0.82082772       2.77811508       0.13427979
Si       9.93000000       2.03000000      11.20000000       0.42732800       1.31300300       3.56335700       0.28692544       1.20980850       3.87680127       0.35862138
Si       2.45000000       7.88000000       9.43000000      -2.35025600      -1.03274900      -0.32306400      -2.49490515      -0.99216086      -0.46822175       0.20890559
Si       4.11000000       6.05000000      12.02000000       1.47215500      -3.15180600       1.31246400       1.43194625      -3.14267918       1.29351644       0.04537678
Si       4.42000000       8.80000000      11.42000000       2.95937200       2.41149600       1.11845300       2.89398819       2.54943745       1.23963910       0.19490756
Si       5.71000000       5.51000000       9.32000000      -0.77397900       0.72272600      -0.00099900      -0.85236524       0.82467063       0.01856755       0.13007674
Si       9.96000000       6.91000000      10.57000000       0.28545000       0.97140500       2.64455200       0.17790081       1.01447767       2.72824379       0.14292095
Si       7.55000000       8.35000000      12.21000000      -1.54858600      -0.82662000       1.16926800      -1.52704135      -0.50632821       1.30657634       0.34914837
Si       4.88000000       4.02000000      13.95000000       2.20968400      -0.92378400      -0.58713300       2.40020086      -1.04936854      -0.44554909       0.26854079
Si       8.96000000       0.71000000      13.69000000       1.24746500       3.75730100       0.19579800       1.44655585       4.28041066       0.24045746       0.56149386
Si       7.87000000       3.63000000      14.62000000       2.02900100       0.26048100      -0.08585000       1.97903930       0.16061379       0.04508264       0.17208424
Si       9.26000000       9.48000000      16.28000000       0.93037800      -0.46437200       2.49967200       0.74187952      -0.31117297       2.55121327       0.24831053
Si       1.37000000       4.47000000      12.33000000      -1.62690300       2.14960600      -1.07904900      -1.67264267       2.04284971      -0.92916065       0.18961947
Si       2.07000000       3.68000000      15.05000000       2.01119100      -2.34489600       2.19989300       1.84286813      -2.48957026       2.50197419       0.37485500
Si       3.15000000       0.94000000      15.93000000      -6.13489500      -2.66826400      -3.70004600      -6.23173016      -2.55190159      -3.41446405       0.32322485
Si       4.48000000       0.97000000      18.51000000      -1.68833700       3.97200800      -3.50749500      -1.84925314       4.04085574      -2.77609935       0.75204628
Si       3.66000000       8.20000000      20.27000000      -9.78778400       2.72855200      -2.53136300      -9.21588439       2.60538592      -1.20085453       1.45344138
Si       9.73000000       4.15000000      17.19000000       1.47628300      -0.57488300      -3.68531400       1.30342975      -0.61243865      -3.40143612       0.33447769
Si       9.05000000       7.08000000      17.73000000       2.46373200      -0.16535500       0.28639400       2.12001789      -0.32967252       0.55626501       0.46687257
Si       8.51000000       6.59000000      20.72000000       1.40991900       0.93313600      -5.06393700       0.42800165      -0.25213423      -3.90094144       1.92914122
Si       1.32000000       8.52000000      22.50000000      -5.50538600       1.51447500       0.56344600      -1.17428186       0.62034700       5.16497460       6.38216213
Si       0.40000000       5.75000000      23.02000000      -5.81868000      -3.21829000      -4.35774500      -5.63349831      -4.32972419      -1.36835244       3.19469030
Si       1.99000000       3.78000000      22.32000000      -1.85942600      -2.83199100      -5.30925200      -1.82267779      -2.50280225      -3.04404502       2.28929647
