150
Lattice="10.0 0.0 0.0 0.0 10.0 0.0 0.0 0.0 54.11" Properties=species:S:1:pos:R:3:reference_force:R:3:predicted_force:R:3:force_error_norm:R:1 case_id=dft/etch/trj_CF2_30eV.extxyz:232 model=nequip selection=prior_outlier pbc="T T T"
C        9.85000000       9.93000000      33.35000000      -1.10612800      -1.72675100      -0.99065600      -0.98050863      -0.85354788      -0.62275574       0.95583185
C        9.95000000       0.75000000      32.19000000       0.31350700       1.91757000      -3.07915500       0.77584719       1.70159332       0.67993114       3.79356468
C        3.88000000       5.51000000      19.04000000       9.07044400      -0.41151600      -1.53349100       6.12175073       0.66031777       1.36155411       4.26906381
F        3.65000000       7.33000000      14.39000000      -0.85020600      -0.78786700       0.72754800      -0.55211524      -0.49491263      -0.86651721       1.64794547
F        4.64000000       0.72000000      14.51000000       0.29250000      -1.13835700       0.56252300       0.37884530      -0.87009695      -0.39761437       1.00064116
F        7.51000000       7.93000000      14.43000000      -0.55188000       1.24210800       1.27192300      -0.20112801       1.05967632       0.19350379       1.14860623
F        4.59000000       8.03000000      16.31000000       0.79339600      -1.99138200       2.56338000       1.44285173      -0.76647585       0.85365159       2.20121763
F        7.80000000       7.19000000      11.89000000      -0.53635300      -0.70803500       1.94625600      -0.34526758      -0.72858487       0.68616065       1.27466711
F        0.69000000       6.88000000      13.99000000      -0.06059500      -0.60633200      -0.32538400      -0.19219840      -0.39054371      -1.24921742       0.95778506
F        2.74000000       9.96000000      12.69000000      -0.01655500      -1.28763100       0.35863400      -0.06815066      -0.98495721      -0.82981557       1.22747135
F        1.48000000       5.58000000      21.06000000       1.44692700      -1.31271400      -1.72526100      -0.05847487      -1.36126913       1.91819364       3.94250607
F        4.94000000       3.31000000      16.30000000      -0.70820600       3.10473500       1.49625600       0.03846417       1.68141365      -0.63762780       2.67148275
F        9.94000000       3.20000000      16.96000000      -0.60005700       1.29383000       0.37685000      -0.74872733       0.73116365      -0.13479098       0.77490178
F        6.84000000       9.12000000      17.73000000      -2.94247500       1.10354100      -0.36493800      -1.78782821       1.17861271      -0.19384790       1.16966525
F        3.89000000       1.58000000      17.55000000       2.60037400       3.05318400       1.93310300       2.38698327       1.87325975       1.33588596       1.33956151
F        0.32000000       5.15000000      18.79000000       1.96740500       1.95056700       0.32687100       0.23374198       1.33655015       0.96121857       1.94550790
F        8.09000000       4.54000000      11.94000000       0.77332500      -0.14864200       1.82333700       0.66141594      -0.16980955       0.56920733       1.25929065
F        9.37000000       2.53000000      19.58000000       1.08645600       0.92345300      -1.37200900       0.76711452       0.13519613      -0.23257315       1.42184455
F        3.30000000       9.89000000      20.17000000      -1.14381500      -1.63954100      -3.30380200      -1.17596297      -0.91785469      -1.41296187       2.02413958
F        7.72000000       2.37000000      22.69000000       0.11485400       0.24452100      -2.89818900       0.33970929      -0.01974694      -0.12237271       2.79741908
F        6.57000000       0.21000000      22.42000000       0.34246700      -0.49614900      -2.90587000       0.43042120      -0.38522184      -0.20544231       2.70413581
F        8.77000000       0.34000000      23.75000000       0.53344400      -0.63086600      -2.22149900       0.67309366      -0.57936838       0.73092875       2.95617721
F        0.90000000       9.06000000      33.34000000       0.49299500      -0.16045400      -3.11995500       0.77505132      -0.41460566       0.15937578       3.30123601
F        4.49000000       5.77000000      20.39000000      -3.31276100      -1.47028400      -9.77040300      -1.47223611      -0.41367951      -1.72308704       8.32245391
F        5.44000000       3.48000000      19.05000000      -3.35854600       4.59370800       0.02860600      -0.26725328       0.83719107       1.48274039       5.07759952
O        1.15000000       3.26000000       1.39000000      -0.48214200      -4.13920700      -1.30118200       0.26490574      -1.91110294      -1.15795381       2.35436665
O        4.63000000       2.27000000       1.61000000      -0.80260400      -1.46530500      -0.44872000      -1.08299250      -0.28664544      -0.26790014       1.22497016
O        1.14000000       0.68000000       2.07000000       0.75003600      -1.06224400      -0.04892100       0.38661086      -0.66433958      -0.05486882       0.53892591
O        6.49000000       0.82000000       0.50000000      -2.93210500      -0.60714200      -2.18178400      -1.61625727      -0.05669318      -0.38277775       2.29583811
O        9.12000000       1.59000000       0.68000000       2.43587400      -0.50201500      -2.49643200       1.72534648      -0.38707570      -0.70023028       1.93504548
O        6.01000000       4.43000000       2.37000000       1.09739100      -0.84840000      -0.35297000       0.28251356      -0.62222366      -0.53879881       0.86585988
O        6.75000000       2.00000000       3.12000000       0.26124900      -0.13511200       1.56075800       0.28707185       0.04064313       1.22449075       0.38030560
O        5.11000000       9.50000000       2.24000000      -2.10513300       0.65987000      -0.42498000      -1.68923754       0.71399065      -0.62049081       0.46273378
O        3.11000000       5.07000000       0.61000000       2.24380400       0.24791100      -3.40488200       0.10029128      -0.13009128      -0.48791587       3.63953622
O        0.81000000       5.93000000       1.29000000      -3.33760500       1.78665300      -1.25177800      -1.10482524       0.71056359      -0.29841374       2.65559358
O        2.52000000       5.00000000       3.05000000      -0.08356900      -0.06543700       1.81321800      -0.11020871       0.31739674      -0.90628626       2.74644766
O        5.07000000       6.84000000       2.38000000       1.77256200       2.61006900      -1.33962800       0.47840745       1.30791420      -1.62143944       1.85738009
O        6.98000000       8.25000000       1.12000000       3.73561300       0.61774000      -2.56786600       3.27404615       0.51422773      -1.50376380       1.16450515
O        7.86000000       6.38000000       2.36000000      -1.41641400      -0.81026500       0.95193100      -0.69791003      -1.33985338       0.97136989       0.89279879
O        9.62000000       8.38000000       2.55000000      -1.42754500       1.07460500      -1.15351600      -0.50681068       0.45719313      -1.22444044       1.11084625
O        4.26000000       3.17000000       4.00000000       0.74799300      -0.43810400       0.74739900       0.34670846      -0.00071649      -0.22929924       1.14292456
O        1.58000000       3.26000000       4.59000000      -0.87998700      -0.78456900       1.91103400      -0.63459460      -0.12905918       0.69018506       1.40726070
O        2.88000000       1.72000000       6.96000000      -3.47743100      -0.69433300      -0.54382100      -3.24702623      -0.64579004      -1.31082350       0.80233136
O        9.06000000       0.52000000       3.86000000      -0.24859300      -0.72356200       0.18879400      -0.06182780      -0.37701471      -0.10361598       0.49038746
O        9.02000000       2.97000000       4.17000000      -0.35708000       1.15578700       0.81502600       0.10487893       1.38478895       0.15876169       0.83458421
O        7.41000000       1.41000000       5.67000000       0.14304200       1.21580700      -1.62064900       0.19381333       0.96124194      -1.67440627       0.26508666
O        0.20000000       2.49000000       6.54000000      -0.27744500      -1.31858500       2.50143800      -0.02952842      -1.14202053       1.69170181       0.86504933
O        7.47000000       9.32000000       7.14000000       0.10239600       1.28143800       1.48072500       0.16830608       1.15591507       0.71370842       0.78000935
O        1.63000000       9.37000000       4.22000000      -0.83565600       0.04289500       0.21172800      -0.52107657      -0.28244505      -0.26390080       0.65652809
O        3.77000000       7.54000000       4.75000000       1.24839300      -0.05641400      -0.21152300       0.77291819      -0.38795591      -0.92718556       0.92096104
O        3.38000000       5.11000000       5.59000000      -0.90400300      -1.32137200       0.03400600      -0.87505695      -1.19356317      -0.64823789       0.69471555
O        1.34000000       7.03000000       5.52000000       1.22144300       0.84754400       0.83981200       1.07434177       0.52654881      -0.25716877       1.15240770
O        2.86000000       8.80000000       6.63000000       0.21850500       1.97874800       0.33803600       0.19328861       1.70331548      -0.53523290       0.91602266
O        5.08000000       6.02000000       6.87000000       1.56098100       0.57162100      -1.08078200       1.40061769       0.52269032      -1.74563304       0.68566574
O        6.11000000       5.83000000       4.50000000       0.22574500      -0.47949300      -0.16485700      -0.08087577      -0.45242489      -0.49049623       0.44809585
O        9.72000000       4.96000000       5.58000000      -0.71220100       1.66737400       1.46582000      -0.36808444       1.64896300       0.44089338       1.08130927
O        9.03000000       7.68000000       5.67000000      -1.40020300      -0.68447900       1.54218800      -0.99295136      -0.81152430       0.74606536       0.90321961
O        6.14000000       8.05000000       5.59000000      -0.24854400      -0.82598700       0.18894800      -0.16734755      -0.74865023      -0.27893940       0.48113663
O        5.42000000       1.18000000       7.51000000      -0.13590200      -0.27169000      -0.53024900       0.09510216      -0.35449423      -1.15467252       0.67091296
O        4.55000000       3.79000000       7.55000000      -0.44587800      -1.58696200       0.98752100      -0.28241843      -1.31175673       0.16013787       0.88714137
O        2.03000000       3.99000000       7.63000000      -0.97989300       0.68775000       1.44729700      -0.82979789       0.63273997       0.55491764       0.90658456
O        3.80000000       2.05000000       9.32000000       0.15664000       0.54094500       2.49631200       0.32668142       0.54876573       1.77800853       0.73819721
O        5.01000000       0.30000000      10.59000000      -0.00601700      -2.90448100       1.55140200       0.05153609      -2.61540981       0.58351403       1.01177153
O        1.61000000       3.41000000      10.36000000       0.24256600      -1.78036000       0.13358300       0.39921575      -1.57789152      -0.58791484       0.76556630
O        0.96000000       1.63000000       8.87000000      -0.48535900       0.13635200       0.94155400      -0.41470591       0.16079944       0.20266903       0.74265775
O        7.77000000       1.59000000       8.39000000      -0.34917300      -0.13468100      -1.12176800      -0.29427451      -0.03036259      -1.58114827       0.47426407
O        9.09000000       3.30000000       9.64000000      -0.50618100       0.42135900       1.90918000      -0.23664738       0.34000465       0.92872382       1.02007903
O        6.28000000       2.64000000      10.16000000       0.69862500       0.75716900       0.51821700       0.70360614       0.61331669      -0.28168793       0.81275223
O        3.09000000       6.36000000       7.94000000      -1.65101500      -1.63975000       0.39501600      -1.31599390      -1.59212242      -0.65755091       1.10562409
O        4.01000000       8.40000000       8.94000000       3.43679200       2.02808800       3.12700100       3.42237843       1.85058722       2.42978508       0.71960011
O        1.53000000       8.26000000       8.75000000      -2.92991800      -1.49807500       1.94015700      -2.92440046      -1.49206710       1.25607084       0.68413479
O        3.21000000       5.55000000      10.63000000       1.79131300      -0.46387600       0.79706500       1.64377984      -0.36304512       0.03769154       0.78011599
O        5.40000000       6.07000000       9.17000000      -0.96159100       0.17550600       5.79816200      -0.84385354      -0.03487742       4.60563008       1.21665758
O        7.11000000       4.32000000       8.14000000       0.68177300      -1.73610600       1.93524400       0.73177003      -1.77308874       1.06352944       0.87393003
O        0.10000000       6.16000000       7.79000000       0.20121700       1.11723600       4.24732600       0.29245337       1.14296186       3.20331703       1.04830368
O        7.57000000       6.63000000       7.42000000      -1.31327500      -0.24949100       1.67170000      -1.20596298      -0.35251385       0.81663934       0.86790455
O        0.88000000       5.96000000      10.39000000      -0.70283200       0.06466100       0.27820700      -0.51300687       0.07678816      -0.50615395       0.80709525
O        9.19000000       7.81000000       9.92000000       0.66607500       0.10459800      -0.60310700       1.01424727      -0.00460201      -1.38647443       0.86418348
O        6.63000000       8.38000000       9.84000000      -1.81288800       0.04542700       0.45721900      -1.67924189       0.21507828      -0.26668312       0.75543175
O        4.59000000       2.49000000      12.14000000       0.26888700       2.08029500       0.68901700       0.43550178       1.88419428      -0.03284323       0.76635382
O        2.61000000       1.95000000      14.17000000      -0.73490700      -0.54897300       0.38454800      -0.61371696      -0.72419195      -0.33237291       0.74790661
O        0.14000000       1.54000000      11.61000000      -0.60224200       0.19118700      -0.53784200      -0.61594764       0.04296787      -1.05370868       0.53691265
O        8.10000000       9.71000000      11.48000000      -0.12769700       0.32297700       0.05904200       0.16742503       0.63469364      -0.44881015       0.66496472
O        7.89000000       2.18000000      12.84000000       0.98581800      -4.33716500      -0.35381600       1.03499677      -4.17963302      -0.95470665       0.62314079
O        6.46000000       4.17000000      13.88000000      -1.15286700      -1.43686400      -0.20289100      -1.12879775      -1.30639099      -0.97166947       0.78014285
O        9.23000000       9.84000000      13.73000000      -0.18092600       1.70201600      -0.56786900      -0.05417421       1.69998217      -1.10058053       0.54758719
O        4.60000000       7.66000000      11.42000000       0.29760400      -1.31654200      -0.36364000       0.26573724      -1.17984517      -1.03719653       0.68802609
O        3.76000000       4.40000000      13.94000000       2.96452200      -0.40313000      -0.08987300       2.71332947      -0.47481793      -1.10383300       1.04706816
O        5.51000000       5.19000000      11.80000000      -0.67189500      -1.32967400       1.64853100      -0.62632590      -1.20058245       0.71879168       0.93976400
O        1.63000000       4.39000000      12.70000000      -0.07227900       0.21861700      -2.14500200       0.04566069       0.18406354      -2.73958429       0.60715057
O        9.04000000       3.88000000      14.47000000       0.43144400       0.83968800       1.95342500       0.52058862       0.63700303       1.28033089       0.70857861
O        2.67000000       9.39000000      15.43000000      -1.41683400       1.61698000      -1.58742700      -1.64783183       2.19735491      -1.92149159       0.70837432
O        7.91000000       0.26000000      16.00000000      -0.24812100       1.62412300      -1.90828300      -0.10046330       1.65301303      -1.57246842       0.36797943
O        6.75000000       2.11000000      17.53000000      -3.10312800       2.22685500       0.45060300      -1.80709706       1.40941704       0.33933682       1.53632066
O        8.50000000       0.18000000      18.62000000       2.31541700       3.67703900      -0.04364800       2.09749314       3.17279526       0.72417701       0.94409099
O        1.40000000       3.93000000      15.24000000       5.01501600       0.70607200      -1.14338600       4.32220412       0.25248774      -1.94776156       1.15444663
O        1.89000000       6.99000000      16.20000000      -1.58517900      -3.01482900       2.14776500      -2.34518781      -2.38891189       1.05380751       1.47177737
O        2.73000000       5.48000000      18.84000000       2.49591800       0.33792300      -1.26190400      -4.05803359       0.27585267       0.17661124       6.71025039
O        2.91000000       8.77000000      17.69000000      -0.90224400      -1.01101800       1.71128100      -1.21042183       0.33793219       1.42374355       1.41326500
O        1.53000000       7.70000000      19.87000000       1.03883900       0.03412100      -3.82513300       0.14700020       1.90036093      -1.90783554       2.82032932
O        1.10000000       0.41000000      19.14000000      -1.75293400       1.70096900      -0.41015300      -1.84252433       1.65157376       0.25162659       0.66964061
O        9.50000000       8.28000000      15.90000000       1.49116100      -1.44540900      -0.70179400       1.12045604      -0.98508914      -0.86490668       0.61312502
O        9.53000000       5.75000000      16.23000000      -0.01241600       1.22726600       1.22550400      -0.63534423       1.29426035       0.74181604       0.79150607
O        8.93000000       0.61000000      21.07000000       0.22392300      -0.37007200       0.08074500       0.11914287      -0.58784095       1.95849917       1.89324138
O        8.92000000       9.77000000      34.11000000       0.30458900       0.63952400      -3.42705600      -0.22281924       0.13940212       0.51196453       4.00551671
O        0.33000000       1.85000000      31.95000000      -0.40088400      -0.58027600      -3.13695100      -0.34757063      -0.57284191      -0.72851570       2.40903677
Si       4.99000000       0.77000000       1.15000000       5.57651800       0.23220800      -1.36100300       3.78097711      -0.48207703       0.11850040       2.43374208
Si       0.77000000       1.70000000       0.84000000      -5.21707800       1.78457200       1.79278100      -3.03042403       2.58056095       2.71309677       2.50240587
Si       5.44000000       2.99000000       2.84000000       0.31618700      -0.09786100       0.65660800       0.04524349       0.20145064       0.98667371       0.52147984
Si       0.33000000       9.79000000       3.21000000       1.12021900      -1.27858900      -0.71679200       0.68175635      -1.48408839      -0.37784829       0.59106880
Si       1.84000000       4.73000000       1.55000000      -1.04780400      -0.65297100       1.42466500       0.53778236       0.26247262       0.47895223       2.06070225
Si       5.44000000       8.13000000       1.37000000      -1.98474000       0.19812900       0.68008200      -1.66047091      -0.16109402       1.90840781       1.32021814
Si       8.47000000       7.66000000       1.57000000      -0.14716900       0.63059100       1.71978100       0.68092647       0.16216867       1.92530117       0.97334481
Si       6.32000000       5.92000000       2.89000000       1.07339700      -1.21972200      -0.49217400       0.72053492      -0.55670265      -0.33338397       0.76767218
Si       2.91000000       4.12000000       4.32000000       1.34026300      -0.63635300       1.24634600       0.98073081      -0.24811393       0.23636253       1.14020155
Si       8.04000000       1.74000000       4.18000000      -2.63156200      -1.12528500      -0.02228300      -2.13941487      -1.02458263      -0.34699876       0.59815557
Si       0.07000000       3.45000000       5.30000000       1.64317100       0.38906900      -2.19241100       1.74453828       0.23185597      -2.31347974       0.22282034
Si       6.96000000       0.89000000       7.09000000       1.34913500      -1.26723000       2.82443000       1.02568507      -0.96248726       2.19818829       0.76789757
Si       2.41000000       8.28000000       5.19000000      -2.40185900      -1.51219000      -0.21955700      -1.88763342      -1.22845920      -0.60338032       0.70160634
Si       5.08000000       6.76000000       5.35000000       0.52954600       1.42910200       1.37861000       0.55660045       1.02491420       0.84853962       0.66713891
Si       3.35000000       4.88000000       7.26000000       0.75681500       1.52713200      -0.85089700       0.74390368       1.42664712      -0.91348738       0.11908597
Si       0.03000000       6.43000000       6.25000000      -0.56734800       1.05549300      -3.02985000      -0.42359993       0.86904512      -2.87938065       0.27940535
Si       7.56000000       7.88000000       6.41000000      -0.32199200       2.13364000      -0.55521300      -0.09159875       1.57922387      -0.74869030       0.63078662
Si       1.48000000       2.47000000       7.57000000       0.15769100      -1.49150600      -0.44204600       0.42334168      -1.29769950      -0.72423650       0.43331596
Si       4.15000000       2.15000000       7.73000000       3.09792500       1.39017600       2.56139300       2.81748224       1.40826274       1.92596803       0.69479505
Si       4.85000000       1.88000000      10.61000000       1.31508300       1.09969500      -0.88684800       0.93391614       0.96854111      -1.08469963       0.44903762
Si       7.57000000       3.03000000       9.14000000      -2.47091800      -0.41959900      -0.41212700      -1.98432271      -0.41814437      -0.50654540       0.49567321
Si       0.36000000       2.45000000      10.19000000      -0.52611800      -2.41573700       0.27156100      -0.64467566      -2.11519848      -0.12199289       0.50917972
Si       2.90000000       7.96000000       7.96000000      -1.43403400      -1.21349700       1.45366500      -1.32168509      -1.30894197       0.86607599       0.60579936
Si       5.02000000       8.66000000      10.21000000       0.42232800       3.05847800      -0.73724100       0.62745153       2.36109044      -0.87053759       0.73904874
Si       1.89000000       4.77000000      10.99000000      -2.19721400       4.14105000       3.94695000      -1.93439657       3.42411778       3.36822968       0.95811379
Si       4.72000000       6.09000000      10.76000000       0.05465000       0.72716500      -0.79825000       0.28604389       0.96749753      -1.22691393       0.54319022
Si       6.31000000       5.71000000       7.94000000       0.80741700      -0.51722800      -0.51506600       0.75708612      -0.42106856      -0.73361264       0.24401326
Si       0.41000000       7.05000000       9.21000000       1.82152900      -0.73130600       0.27091600       1.56240320      -0.55629136      -0.15282424       0.52662330
Si       7.93000000       8.25000000      10.75000000      -0.01881000       1.60760100       0.97332500      -0.28996968       1.20966931       0.70377313       0.55184727
Si       5.07000000       4.02000000      12.92000000       0.29744100       0.18456700       1.34834100       0.53123792      -0.01039767       0.84223054       0.59060987
Si       2.39000000       3.55000000      13.88000000      -1.65027400      -0.58008100       2.28457600      -1.62192962      -0.47353887       1.82828836       0.46941777
Si       3.13000000       0.26000000      14.17000000       0.28844400       5.15165000       1.59408500       0.39275978       3.82985038       1.37919954       1.34320950
Si       8.85000000       0.80000000      12.39000000      -0.34372700       1.30190100       1.44850800      -0.26131274       1.03948647       1.12140179       0.42737801
Si       7.96000000       3.68000000      13.31000000      -1.20267500       2.10868000       1.04416000      -0.75054244       1.92034957       0.64800971       0.62994227
Si       8.43000000       9.16000000      14.97000000       1.36914900      -2.27059600       0.94740300       1.17484621      -2.19904165       0.53374173       0.46258972
Si       7.42000000       0.72000000      17.44000000       1.91539600      -7.66766900       1.49000300       1.70224502      -5.94543631       1.75474542       1.75545075
Si       3.09000000       7.89000000      15.81000000       3.94920000       1.92898000       0.97626900       3.28177369       1.92296601       0.35828423       0.90961487
Si       2.21000000       9.32000000      19.00000000       3.78403000      -3.79935100       0.29339200       3.21657436      -3.73140728       1.78878007       1.60087718
Si       1.31000000       6.13000000      19.63000000       1.09206600       0.77125800      -2.27380400      -0.32588129       0.41789525      -1.40924743       1.69790984
Si       0.42000000       6.88000000      15.52000000      -1.41462600       5.25147700       1.71705200      -1.02272272       4.30182283       1.14296899       1.17686131
Si       0.05000000       4.35000000      15.81000000      -3.43496600      -6.20609800      -1.86577300      -3.10232992      -5.30316625      -1.36334334       1.08552663
Si       5.20000000       2.74000000      17.72000000      -1.08945200      -3.42751200      -2.66924200      -0.99096260      -4.37086872      -1.95100391       1.18974283
Si       9.67000000       0.97000000      19.65000000      -4.15367200      -1.61432000      -3.38061600      -3.56329587      -0.95325800      -1.52859048       2.05317936
Si       8.05000000       0.82000000      22.45000000      -0.76250600       1.17003000      -3.74578800      -0.47531214       1.05565308      -1.85697521       1.91394257
150
Lattice="10.0 0.0 0.0 0.0 10.0 0.0 0.0 0.0 45.89" Properties=species:S:1:pos:R:3:reference_force:R:3:predicted_force:R:3:force_error_norm:R:1 case_id=dft/etch/trj_CF2_30eV.extxyz:874 model=nequip selection=prior_outlier pbc="T T T"
C        1.01000000       4.86000000      18.26000000      -0.76906700       0.96450900      -1.46918300       0.55379462      -0.76308750       0.39040642       2.86227625
C        7.74000000       6.64000000      20.93000000      -1.88744600      -2.46534900      -1.38636900      -2.44861824      -1.79333233       0.16763006       1.78365741
F        6.01000000       9.08000000      15.05000000       0.51287300       1.91326100       1.73070400       0.41253443       1.92434057       0.79415750       0.94197130
F        0.05000000       1.03000000      17.25000000       0.10933400       1.93302100       0.83549000      -0.14522009       0.70154342       0.72104174       1.26270868
F        1.14000000       5.14000000      19.59000000      -0.94841400      -1.43873200      -9.16859800       0.24730603      -0.74128222      -1.20380862       8.08418533
F        7.65000000       3.99000000      19.97000000       0.47372100       0.71744400      -4.49146700      -0.55552781       0.09769399      -2.43662106       2.38030146
F        3.73000000       6.03000000      17.78000000      -4.32303900      -1.04471700       1.04734800      -1.66796457      -0.03752587       1.31511330       2.85228898
F        1.27000000       8.59000000      17.66000000      -2.22503200      -1.66943900       1.11036000      -2.04717549      -0.43422071       1.20735227       1.25172068
F        0.49000000       6.66000000      21.40000000      -1.93074700       1.63808300      -3.63692600      -1.79175770       2.35651012      -0.04001355       3.67059051
F        5.74000000       7.57000000      17.48000000       0.81933500      -0.37499600      -0.43069400       0.69843828       0.06420486      -0.32270630       0.46816103
F        9.00000000       6.87000000      18.81000000       2.82543700      -0.89406700      -2.71543500       0.75209353       1.13332004      -0.70514011       3.52850349
F        5.94000000       0.67000000      22.90000000      -0.11365500       1.85621000      -3.78406200      -0.08997621       1.69628437      -1.13644945       2.65254389
F        3.30000000       4.41000000      23.40000000       1.66313200       0.36856300      -4.46786200       1.65783409       0.24437938      -1.33386552       3.13646036
F        7.37000000       2.08000000      21.21000000      -0.69272800      -0.48565700      -1.67091900      -1.05839773      -0.92695405       0.93373727       2.66696301
F        4.24000000       5.43000000      21.13000000       0.72103300      -1.56456600       0.04994200       0.89971036      -1.45957862       2.67302547       2.63125727
F        8.75000000       8.84000000      22.13000000       0.18314600      -0.74900400      -1.55692600      -0.26486595      -0.27789613       1.01289881       2.65078420
F        8.02000000       6.66000000      24.53000000      -1.57156300       1.76498800      -4.06853200      -1.31252376       1.54768434      -0.80007189       3.28590226
F        6.99000000       4.91000000      25.44000000      -1.34582600       0.74941100      -2.65979300      -1.28232187       0.55901351       0.33805838       3.00456268
F        5.68000000       7.21000000      25.89000000       0.91466900      -0.09959500      -3.97231100       0.69684857      -0.14420590      -0.76698082       3.21303244
F        2.86000000       2.35000000      19.30000000      -0.65620200       1.62308300      -2.15888700       0.59455282       0.08809584       0.06232714       2.97562858
F        8.14000000       5.49000000      21.58000000       2.34422400       0.29186100      -1.41677900       2.16769512       0.26308907       1.51585987       2.93808798
O        2.22000000       4.14000000       0.67000000      -0.37228800       1.02526900      -3.16902500      -0.06488205      -0.27468993       0.43520917       3.84381263
O        3.09000000       2.00000000       2.08000000       1.79145300      -1.52051300       1.69369900       0.78076573       0.60668489      -0.03353655       2.92058252
O        0.98000000       3.17000000       2.95000000      -0.71171100      -1.28881900       1.02170200       1.22091945      -0.10382617      -1.43245757       3.34098303
O        4.40000000       2.90000000       1.96000000       2.36455100      -2.05422000       0.96869200      -0.30679420      -0.60044948       0.46526858       3.08268861
O        6.44000000       1.24000000       1.57000000       0.76302700      -0.03039700      -0.14551600       0.58501781       0.04781441       0.72499133       0.89195701
O        8.84000000       0.32000000       1.56000000       0.37170400      -0.83806100      -0.27129700       0.89061607      -0.52594750       0.08564293       0.70291584
O        8.36000000       2.64000000       2.98000000      -1.37104200      -2.03051900      -1.26872200      -0.80321364      -1.68046972      -1.50774429       0.70858677
O        7.45000000       0.42000000       3.94000000       0.86765800      -0.22010600      -1.52006500       0.78228288      -0.03658225      -1.72492058       0.28798556
O        9.14000000       4.55000000       4.39000000      -0.25223800      -0.35459300      -0.33490800       0.27902107      -0.21276195      -1.05347255       0.90481338
O        2.97000000       4.75000000       3.10000000       2.30995000       0.95058900       3.67902100       1.11223363       0.09822918       0.37272754       3.61837232
O        1.03000000       8.80000000       2.01000000      -0.95479200       1.01216900       0.31842700      -0.64411289       0.89608923       0.14199458       0.37566530
O        2.80000000       7.13000000       2.40000000       2.01906000       1.49855800       0.97522300       1.29656765       0.16576435       0.39942324       1.62169031
O        0.40000000       6.78000000       3.56000000      -1.92606600      -0.42109400       1.20001300      -1.27038060      -0.83517085       0.47719676       1.06011617
O        5.30000000       5.60000000       1.89000000       1.01324400       0.94493400      -1.22787000      -0.82427337       0.36857745      -0.63862690       2.01391768
O        7.87000000       6.91000000       4.20000000      -1.07981400       0.12558200      -1.09936300      -0.79918854      -0.03211922      -1.31114585       0.38532104
O        4.91000000       6.64000000       4.05000000       0.69730200       0.55286400      -0.33814000       0.21726492       0.14689459      -0.75644794       0.75513461
O        4.87000000       3.34000000       5.06000000       0.29083500      -1.05261600       1.35226400      -0.11007351      -1.02914035       0.30794668       1.11887327
O        2.57000000       1.85000000       5.15000000       1.53764300      -1.32726400       0.56266300       1.46365031      -0.83241878      -0.48561711       1.16156700
O        1.60000000       3.88000000       6.50000000       1.27495300      -0.53624700       0.82822800       1.24691194      -0.36874433      -0.20573531       1.04781848
O        0.96000000       1.48000000       7.44000000       0.38647200      -0.06124100       0.74986800       0.25260942      -0.00331655      -0.00378654       0.76763898
O        3.99000000       1.75000000       7.25000000       0.06595700       0.95699600      -0.00215900       0.19214741       0.78373818      -0.82238475       0.84776917
O        9.94000000       2.33000000       5.16000000      -0.09030500      -1.35173400       0.73418600       0.29301690      -1.06136090      -0.07746678       0.94341532
O        5.18000000       0.66000000       5.24000000      -0.56897600       0.27502600      -0.14726200      -0.89402612       0.55846759      -0.76565539       0.75392779
O        6.91000000       3.33000000       6.72000000      -1.44491300       0.79122100       0.74715600      -1.21803128       0.64169337      -0.09802471       0.88778615
O        7.47000000       0.71000000       6.50000000       0.68002100      -0.30287000       0.90093500       0.69467446      -0.08926266       0.20238221       0.73062906
O        8.54000000       2.35000000       8.27000000       0.28545000      -1.16622600       0.75317000       0.51927978      -1.07961658      -0.04317788       0.83447439
O        1.92000000       8.46000000       4.76000000       0.54810100      -0.66534600       0.31644000       0.59558883      -0.58869292      -0.44261665       0.76439374
O        4.41000000       4.47000000       7.24000000       0.03027600       0.23004000       1.43843000      -0.16987909       0.26872483       0.42053425       1.03810902
O        2.69000000       6.25000000       6.17000000      -0.39396100      -0.33332500       0.81276500      -0.38547464      -0.44665302      -0.21861502       1.03762228
O        3.41000000       8.52000000       7.09000000       1.23366400       0.67440000       0.81367000       1.13795567       0.56003485       0.02357336       0.80404737
O        0.88000000       8.25000000       7.13000000      -0.99178400      -1.07252800       1.83522100      -0.79795063      -0.94236921       0.86425484       0.99864307
O        6.23000000       5.67000000       5.85000000       1.11592000       0.31363100       1.39669500       0.87146085       0.12002392       0.55423766       0.89831974
O        6.29000000       8.47000000       5.35000000       0.68032400      -0.98335400       0.70453800       0.46091168      -0.75242377      -0.04778518       0.81698268
O        9.48000000       6.38000000       6.13000000      -0.63182300      -1.01710100      -1.59226900      -0.36044492      -0.92412644      -1.98798565       0.48875556
O        8.36000000       8.02000000       7.90000000       0.19374200      -1.71025900       0.67263700       0.25195035      -1.51181789      -0.08114064       0.78163151
O        6.00000000       8.91000000       8.22000000      -2.06600900      -0.97416400       0.34263300      -2.06547156      -0.83607646      -0.22394810       0.58316602
O        0.04000000       6.03000000       8.67000000      -0.09373400       0.73841400       0.51441900       0.05711258       0.51091695      -0.31965048       0.87759985
O        3.79000000       0.04000000       9.25000000       1.83240800       0.50763700      -0.15725100       1.52021221       0.40949835      -0.88212388       0.79532263
O        4.28000000       2.58000000       9.99000000       0.23970100      -0.46566300      -0.11424800       0.30325540      -0.43965318      -0.82276779       0.71183985
O        3.16000000       3.38000000      11.96000000      -0.53209700       2.07193400       1.99300400      -0.44109598       1.91407787       0.90162016       1.10648923
O        0.44000000       3.47000000       9.38000000       0.87652900      -0.72754000       0.47589300       0.64673010      -0.66996975      -0.44873782       0.95449674
O        0.05000000       0.90000000      10.05000000      -0.21798000       1.13256000      -0.21145900      -0.17778447       0.97778732      -0.96377092       0.76911865
O        6.10000000       1.38000000       8.60000000       2.04915200       1.09140000       0.54537100       1.70415080       1.03504018      -0.28020553       0.89653715
O        7.76000000       1.60000000      11.36000000       0.89146400      -1.68683700       0.62109600       0.97448801      -1.56005623      -0.31154328       0.94487162
O        5.98000000       3.19000000      12.16000000      -1.89743800       0.69645100       0.22732200      -1.72432127       0.64558791      -0.59993674       0.84670744
O        2.52000000       5.13000000       8.58000000      -0.31378300      -0.39237600       0.67673500      -0.26819798      -0.27725806      -0.16534995       0.85113877
O        4.07000000       7.26000000       9.24000000       1.27409600      -0.30355100       0.64033700       1.05426095      -0.34654273      -0.19029299       0.86030339
O        1.56000000       5.34000000      10.83000000      -0.41497000      -0.70694900       2.80665300      -0.18883268      -0.70145478       1.79909282       1.03264020
O        4.18000000       7.17000000      11.65000000       2.15386900       1.48135000       0.40899300       1.83487718       1.31735363      -0.26450310       0.76305149
O        5.01000000       4.98000000      10.61000000       0.60802700       1.82386300       0.14572900       0.54963443       1.69140590      -0.65642699       0.81511275
O        1.54000000       7.97000000      12.18000000      -1.04660400       0.44456100       0.68097900      -0.92302035       0.53586089      -0.18245397       0.87699777
O        8.06000000       9.35000000       9.93000000      -1.28609100      -1.13421700       1.16709000      -1.05882280      -0.86275991       0.41807903       0.82846678
O        6.51000000       7.27000000      10.18000000       1.32181900      -0.65066300       0.36348000       1.07040243      -0.60825748      -0.22192196       0.63851702
O        9.41000000       9.69000000      12.37000000      -0.35382900       0.08559300      -0.17108400      -0.13309873      -0.05955016      -0.75496258       0.64086081
O        0.77000000       4.01000000      13.12000000       1.04644500       0.68742700       0.45758500       1.11433488       0.74989617      -0.86760935       1.32840186
O        2.44000000       4.63000000      15.73000000      -2.42318700      -3.09329800       1.46855400      -1.15967457      -2.95869108      -0.74957726       2.55630377
O        3.12000000       9.61000000      16.23000000       1.02101100      -0.45513000       1.83138000       0.92581962      -0.38070232       1.76429148       0.13820907
O        5.25000000       1.52000000      15.94000000      -1.25953000      -0.49928100       1.29944700      -1.10596522      -0.58701788       0.84148935       0.49092272
O        2.80000000       1.98000000      16.47000000      -1.80442600       2.88548000       0.18159200      -0.68831073       1.26614895      -0.49081974       2.07848115
O        6.51000000       1.18000000      13.72000000       0.60280700      -0.10761000       2.03879700       0.39089751      -0.16241491       1.31560086       0.75559372
O        0.47000000       2.76000000      15.31000000      -2.16955100       1.35435000       0.26732300      -2.39911205       0.32353822      -1.21336319       1.81870910
O        8.45000000       3.16000000      13.29000000      -0.64593900       0.07170900       2.76414500      -0.64629646       0.00939220       1.55020724       1.21553626
O        1.09000000       9.25000000      14.56000000      -0.31303700      -1.55493500      -0.33649000      -0.27589025      -1.28867524      -1.24717993       0.94954214
O        2.79000000       5.91000000      13.00000000      -1.69408000      -3.47253100       2.33044300      -1.37601493      -3.02441282       1.17361036       1.28071740
O        3.50000000       8.60000000      13.83000000      -0.84647400      -1.65922200       0.37463600      -0.59143669      -1.34878822      -0.45422934       0.92110310
O        4.83000000       5.72000000      15.86000000       3.44287500      -0.11825500      -1.64683600       3.56901919       0.01482308      -1.98460143       0.38432748
O        2.52000000       7.06000000      15.57000000      -1.05340900      -0.23975100       2.32965500      -0.36574285       0.84641857       0.92379693       1.90501601
O        9.53000000       5.26000000      15.17000000       0.77735100      -2.14604100       1.13874000      -0.00312323      -1.58604145      -0.83172648       2.19213998
O        9.19000000       7.44000000      13.78000000       2.33326300       1.78346200      -1.02134500       2.04300175       1.97616277      -1.84243546       0.89194996
O        7.30000000       6.45000000      15.30000000      -0.01291000       0.57002600       2.95272400      -0.32623831       0.69197817       2.09521865       0.92106590
O        9.33000000       7.80000000      16.49000000       0.49716700      -1.81741900       0.17024500      -0.09259584      -0.51015071       0.15920310       1.43418706
O        4.40000000       0.55000000      18.29000000      -0.32753100       1.18623800      -2.30530500      -0.07546557       0.69318876      -1.34615469       1.10752149
O        5.25000000       3.26000000      18.55000000       1.55060600      -0.53009300      -0.13423100       2.00942854      -0.74147952       0.76500519       1.03142043
O        1.58000000       3.80000000      17.85000000      -3.78546000       4.28133100       1.00113900      -1.58804415       0.69924933      -0.06841475       4.33634532
O        4.70000000       1.55000000      20.74000000       1.45512400       1.13953900      -2.09166800       1.69714013       0.76030750       0.51961500       2.64975230
O        6.58000000       6.41000000      20.63000000       0.93808700       2.73453200      -2.81100100       0.94373694       2.74543326      -0.72782061       2.08321657
O        8.01000000       0.69000000      15.94000000      -2.84732800       1.10611100      -1.12657400      -2.92011008       0.82809157      -1.24041666       0.30911517
O        7.65000000       2.23000000      18.13000000       1.55460400       0.93599700      -1.42357900       0.45304261       0.42404611      -0.54223494       1.50076599
O        9.81000000       8.95000000      19.94000000       0.77838300      -2.53205600      -3.59309700       0.65173848      -1.51098762      -1.50541130       2.32745592
O        8.28000000       9.52000000      18.21000000       1.28132400      -0.67516800      -1.34483900       1.07178612      -0.46427067      -0.48023321       0.91429042
O        6.69000000       5.08000000      17.69000000       1.84372500       0.55355600      -1.40741300       0.88494495       0.35057871      -0.99543165       1.06310282
O        5.65000000       3.42000000      22.72000000       0.60543000      -2.54708600      -4.70065800       0.65403510      -2.23547244      -1.61491927       3.10181382
O        5.40000000       5.81000000      23.83000000      -6.17903800      -3.12836500     -11.26610700      -6.01085965      -3.08127319      -7.64604234       3.62427506
Si       5.96000000       5.22000000       0.50000000       0.75114400      -0.50959300      -1.80254300      -0.26425383      -0.91201896      -0.02911181       2.08279562
Si       2.32000000       3.55000000       2.17000000       1.07311400      -0.86906900       1.38839700       1.15841721       0.74840085      -1.62566451       3.42170311
Si       5.38000000       2.22000000       0.79000000       1.38768600      -0.20074200      -1.20481300       0.43470083       0.33172378      -0.53767770       1.27936314
Si       7.82000000       1.13000000       2.51000000      -0.92382600       0.15804900       0.31508300      -1.00185247       0.66748243       0.34369074       0.51616756
Si       9.68000000       3.11000000       3.75000000      -2.86967500       1.60825400       3.63695600      -2.64366108       1.55288198       3.14753467       0.54192397
Si       3.98000000       6.02000000       2.80000000      -0.77903800       1.62998800       2.93451000      -0.52425502       0.44185769       1.44288485       1.92393180
Si       1.56000000       7.85000000       3.23000000       0.65949800       0.21193400       0.86465300       0.82259585      -0.45326086       0.64657978       0.71877746
Si       9.93000000       9.23000000       0.85000000      -0.39398800       0.16409200      -0.91291400      -0.22867411       0.41623957       0.85072450       1.78922548
Si       9.22000000       6.13000000       4.52000000       2.17328600       0.27977000       1.03397400       1.82157074      -0.05322139       0.46695210       0.74572161
Si       6.39000000       6.90000000       4.82000000      -2.55691900       1.82482800       0.32916700      -2.37753681       1.47411528      -0.04843075       0.54567155
Si       4.19000000       1.87000000       5.53000000      -0.88355400       0.82898400       2.89698600      -0.84550313       0.94001124       1.89201703       1.01179916
Si       1.30000000       2.28000000       6.04000000      -0.43276700       1.59609400       1.70942200      -0.38990783       1.53523227       0.85897779       0.85369574
Si       6.69000000       0.06000000       5.29000000      -1.65293700      -1.86431300      -0.54239700      -1.34628941      -1.89827611      -0.58407443       0.31132499
Si       5.64000000       4.24000000       6.25000000       0.33892600      -1.05504600      -1.07566200       0.26485075      -0.78201464      -1.15774439       0.29456881
Si       7.16000000       1.94000000       7.49000000       2.37906000      -0.14812600       2.55024100       1.71052194       0.05520940       1.72979942       1.07768864
Si       2.85000000       4.86000000       7.02000000      -1.53368400       0.33821100       1.05008900      -1.29738355       0.13155050       0.19994803       0.90624839
Si       2.20000000       7.79000000       6.32000000       0.83807800       1.63118100      -1.51575800       0.53153883       1.21664161      -1.51691298       0.51556814
Si       4.34000000       8.65000000       8.43000000      -0.77418300       1.24629800       0.83944000      -0.45284336       1.08560200       0.36384785       0.59604552
Si       9.68000000       7.15000000       7.47000000       0.59135500       0.44427100       2.99914900       0.42249937       0.39568915       2.21777081       0.80088969
Si       4.54000000       1.55000000       8.79000000      -2.43917900      -2.56057800       0.37757500      -2.15267271      -2.01717183      -0.03900577       0.74223692
Si       4.64000000       3.56000000      11.22000000       0.09060900      -1.27592000       1.59250500       0.11793537      -1.21653871       1.13252379       0.46460261
Si       0.10000000       1.99000000       8.72000000      -2.39618600      -0.03892300       2.88521000      -1.97805562       0.05924556       2.13398716       0.86533568
Si       2.02000000       4.61000000      12.26000000       0.89345300       0.92804600       0.23857400       0.66265236       0.61579774      -0.29770593       0.66209069
Si       8.75000000       0.33000000      10.97000000       2.04062400       1.44327900      -0.07560300       1.40400898       1.35728346      -0.38646680       0.71365973
Si       1.11000000       4.94000000       9.34000000      -0.86012800       0.79561700       0.03954600      -0.82951677       0.68642840      -0.29683690       0.35498261
Si       5.06000000       6.60000000      10.44000000      -2.32765200       0.46000900      -0.36943000      -1.82100392       0.38851679      -0.95853879       0.78029006
Si       7.22000000       8.25000000       9.03000000       0.65244200       1.47384800       1.83079300       0.62451875       1.11158533       0.99664879       0.90984093
Si       3.94000000       0.81000000      16.70000000       0.19017300       3.78804400       1.72658500       0.99626183       3.70626820       1.83117735       0.81694923
Si       1.72000000       3.19000000      16.13000000       3.82522600       1.46529900       3.92731600       3.77073498       0.51361138       2.69148945       1.56075169
Si       7.16000000       2.24000000      12.71000000       0.61589200       1.20296100      -0.08305500       0.56676842       0.91099322      -0.11972110       0.29833323
Si       9.61000000       3.81000000      14.25000000       1.51380000       1.65641000       0.34902700       0.92978436       1.11418342       0.08824602       0.83850501
Si       6.44000000       0.69000000      15.31000000       2.56551300      -2.78424700      -3.31156100       2.59761448      -2.42861674      -2.56198298       0.83028345
Si       3.02000000       7.45000000      12.67000000       0.23912400       1.66522600       1.83221300       0.24840910       1.67583370       1.40962915       0.42281893
Si       2.52000000       8.65000000      15.24000000      -2.29669000      -2.75604000      -5.90882100      -2.19993637      -2.72241213      -5.59207484       0.33289672
Si       3.33000000       5.82000000      16.23000000      -1.50962000       1.67212100       1.41937900      -0.59436430       1.51427476       1.02501434       1.00902523
Si       0.34000000       8.58000000      13.10000000      -0.33831500      -0.08955700       3.58135600      -0.59933728      -0.01038120       3.01015152       0.63298973
Si       8.98000000       6.84000000      15.24000000      -2.22526600      -1.88925900       1.24070900      -2.39634461      -1.66929378       0.54292109       0.75137245
Si       6.19000000       6.34000000      16.57000000       1.16819700      -2.92860200      -0.86645300       0.93383707      -2.15034897      -0.59327592       0.85745441
Si       4.42000000       1.97000000      19.13000000      -1.06992600       0.63741800       1.28420300      -0.64746770       0.58627894       1.43396084       0.45112485
Si       8.44000000       0.97000000      17.48000000       1.40120300      -1.70570600      -0.26885300       0.80639297      -1.71059607      -0.28526712       0.59505656
Si       7.04000000       3.70000000      18.49000000      -3.84468200       1.02190400       0.41643000      -3.50110765       0.29486778       0.85539190       0.91614003
Si       9.30000000       7.84000000      21.02000000       1.45500400      -1.29906000      -2.05463500       1.71716584      -1.21032081      -0.89073633       1.19635429
Si       9.62000000       8.33000000      18.05000000      -0.33504800      -0.11922300       2.01313300      -0.69230163       1.00479634       1.84627500       1.19117220
Si       5.89000000       1.93000000      21.82000000      -0.12370500      -0.21562700       0.47940100      -0.32158241      -0.31840130       0.95989159       0.52970675
Si       4.74000000       4.71000000      22.58000000      -3.11179600       3.09460300       0.52728700      -2.77785840       2.41701217       1.21044012       1.01849979
Si       6.41000000       6.34000000      24.72000000       7.60973500      -0.74958500       6.25208300       7.30982669      -0.00041957       6.98015071       1.08686542
150
Lattice="10.0 0.0 0.0 0.0 10.0 0.0 0.0 0.0 43.86" Properties=species:S:1:pos:R:3:reference_force:R:3:predicted_force:R:3:force_error_norm:R:1 case_id=dft/etch/trj_CF2_30eV.extxyz:292 model=nequip selection=prior_outlier pbc="T T T"
C        1.13000000       8.07000000      13.33000000      -7.98002600       4.21176000     -13.97321000      -7.81783981       4.16448127     -13.64046355       0.37317535
F        7.70000000       9.32000000      16.11000000      -0.80899200       0.31012600       1.73248200      -1.00580360       0.47914874       0.13229089       1.62108454
F        7.19000000       7.56000000      13.65000000       0.59290000      -0.00666300      -0.81979000       0.44528125       0.05534765      -1.70405739       0.89864644
F        8.42000000       4.71000000      13.57000000      -0.17994300      -0.07172300       1.14369000      -0.08358764       0.21570220      -0.21645868       1.39352145
F        1.84000000       0.45000000      16.72000000      -0.12853700       0.46062900       2.87231800      -0.01440308       0.52639883       1.12271290       1.75455699
F        3.16000000       9.54000000      15.14000000       1.15478100       0.06902800       0.01803700       0.99577408       0.05566149      -0.96853817       0.99939604
F        3.67000000       2.47000000      18.62000000       0.45583900      -2.54879800       0.97909100       0.81316538      -1.77519416       0.51447626       0.97057297
F        9.65000000       0.35000000      17.56000000      -0.97707500      -0.08063300       1.74191000      -1.04231127       0.42803271      -0.00964943       1.82509096
F        9.43000000       3.17000000      18.36000000       0.31936800      -0.82255300       1.30136700      -0.04058353      -0.51847759       0.61071633       0.83607734
F        7.34000000       7.27000000      21.53000000       3.62744800       2.08953300      -0.87284900      -0.01126849      -0.14750662       0.03283675       4.36633378
F        5.01000000       7.72000000      20.61000000       4.23636700      -0.04804000       1.02691400       5.17540557      -0.95011744       1.70287368       1.46712598
F        3.00000000       6.81000000      19.69000000      -0.24807200       2.73589800      -0.00511900       0.89003499       1.19172227      -0.72249636       2.04802258
F        7.67000000       6.96000000      16.94000000       0.06663800      -0.40901800       2.19196000      -0.24188359      -0.54608476       0.60704774       1.62046899
F        3.21000000       2.63000000      22.59000000      -2.53486700       1.88641500      -2.68080900      -1.71874745       2.19911873      -0.13890220       2.68795925
F        2.20000000       9.51000000      23.86000000      -5.30384700      -3.55322900      -9.24779800      -1.72964665      -1.72788749      -2.63404985       7.73617764
F        8.88000000       5.59000000      23.68000000       2.31685300       2.80441100      -3.92857700       1.04171991       0.72106307       0.31629799       4.89747554
F        1.33000000       3.12000000      20.81000000       0.93749600       0.39772700       2.53452900       1.31462108       1.01425664       3.21003646       0.98926359
F        2.16000000       5.38000000      21.74000000       0.30930700      -0.93870700      -1.06472600       1.27384172      -2.56717448       0.05634362       2.19977969
F        7.84000000       5.31000000      19.83000000       1.15719200       2.53348300       1.23254000       0.24611939       1.46014850       1.15555773       1.40997394
F        5.97000000       1.51000000      18.60000000       0.68119700      -1.61731700       1.54088900       0.37602812      -0.74238070       0.89619267       1.12883787
O        1.35000000       1.52000000       0.86000000       1.20932600      -0.08715400      -3.53718700      -0.78901135      -0.33588813       0.23329528       4.27454764
O        4.87000000       4.01000000       0.50000000      -1.00226100       1.25101500      -2.46307100      -0.40206617       0.08522339       0.36221232       3.11472788
O        3.37000000       0.17000000       1.17000000      -0.28759200      -2.23828500      -2.62722100      -0.36366522      -0.67668260      -0.83329672       2.37961205
O        0.78000000       3.05000000       2.93000000      -0.50598900      -0.70772800      -0.64905700      -0.75726887      -1.74893092      -0.97434100       1.11939929
O        3.96000000       1.95000000       2.99000000      -0.96665300      -0.45962400      -0.78310000      -0.43343769      -0.58390769      -0.95607620       0.57418270
O        0.84000000       0.18000000       3.17000000       0.20355300       0.41707200       0.67109900      -0.58516793       1.12715899       0.11912635       1.19623494
O        4.66000000       9.33000000       3.33000000      -1.44885000       0.18206700      -0.51314800      -0.77921266       1.17433333      -0.68371518       1.20917319
O        6.10000000       1.08000000       1.86000000      -2.62995800      -1.37619600       0.56011900      -0.34774308      -0.55614734      -1.39160477       3.11291028
O        8.81000000       1.21000000       2.01000000       1.96627400      -0.02591500       2.41370800       0.07307684       0.62551609      -0.33259158       3.39863492
O        5.54000000       4.11000000       3.41000000       0.20816200       0.95888000       0.52712500       0.30538411       0.21080727       0.04777573       0.89377887
O        4.35000000       7.84000000       1.05000000      -0.78012400      -0.88959600      -2.27604800      -0.45881073      -0.43207251      -0.41246615       1.94563801
O        1.64000000       7.88000000       1.44000000      -0.13409400      -0.76558700      -1.97484600      -0.26093117      -0.04698668      -0.52126571       1.62645927
O        2.85000000       4.70000000       1.85000000       0.07398700       0.25179300      -1.89431600       0.06671815      -0.40130439      -0.58949533       1.45915935
O        2.02000000       4.90000000       4.27000000       0.99068800       0.94191400      -0.37670300       1.06489756       0.36766267      -0.08845994       0.64680423
O        0.51000000       5.65000000       2.40000000      -1.93189500       1.95872100      -2.03035500      -1.42129175       1.39853570      -1.19974117       1.12447436
O        4.86000000       6.71000000       3.37000000      -0.44292100      -0.46316700      -0.83859000      -0.37194049      -0.44621524      -0.46775430       0.37794803
O        8.91000000       7.41000000       1.58000000       1.05743700      -1.50331700      -2.86958500       0.47779238      -0.37080317      -1.33485240       1.99348429
O        6.73000000       8.25000000       2.37000000      -1.08662200      -1.63624200      -0.83183900      -0.66940572       0.02712359      -0.34427594       1.78285508
O        7.43000000       6.08000000       3.67000000       0.10512000       0.01304800      -0.28446100       0.07921339      -0.06408502      -0.15404714       0.15371542
O        9.04000000       8.30000000       3.94000000      -0.68016300      -1.92095600      -0.01634700      -0.81620332      -0.88495955      -0.29683892       1.08188323
O        3.79000000       2.99000000       5.25000000      -0.49920500       0.98582100       0.58694300      -0.46938287       0.63759896      -0.06715299       0.74161278
O        0.94000000       3.29000000       5.68000000      -0.98791200      -0.63567900       0.97140300      -1.29373533      -0.73773966       0.42436102       0.63497970
O        2.35000000       1.39000000       8.15000000       1.12240500       1.31444100       1.45366400       0.83873434       1.10443684       0.62728958       0.89859083
O        6.14000000       1.72000000       4.35000000       0.09133000       0.35919500       1.71487600       0.53165364       0.09664292       0.24506660       1.55664967
O        4.85000000       1.05000000       8.58000000       0.59593500       0.39180700       0.39537400       0.47304727       0.43600612      -0.38087805       0.78716085
O        8.83000000       0.65000000       4.91000000      -0.45094700      -0.21501500       1.45506300      -0.65211704       0.14838041       0.27421273       1.25177193
O        8.10000000       3.02000000       5.53000000       1.01789600      -0.35741300       1.02075200       0.93544486      -0.45491480       0.21399515       0.81679949
O        6.78000000       0.94000000       6.65000000       0.92894100       0.15988400      -1.44125000       0.78927166       0.20735147      -1.85075496       0.43526428
O        9.84000000       2.02000000       7.45000000       0.14316100       0.05415900       2.45090600       0.08195243       0.09077506       1.57233939       0.88145704
O        1.14000000       9.14000000       5.48000000       0.01978200      -0.97020800       1.51690400      -0.06542253      -0.64190109       0.94473321       0.66515010
O        2.69000000       4.78000000       6.84000000      -0.27838300       0.64876700      -2.00618800      -0.14625412       0.55704698      -1.94345288       0.17264501
O        3.23000000       7.45000000       6.07000000       0.14365400      -0.65907900       0.66631300      -0.00790181      -0.30042537       0.20674401       0.60233317
O        0.73000000       6.81000000       6.69000000      -2.13997400      -2.35306400       0.61996100      -2.20007121      -2.01743836       0.14997979       0.58063636
O        1.95000000       8.58000000       8.06000000       0.68222100       0.60262800       0.27078600       0.57653223       0.63311603       0.00657057       0.28619824
O        4.75000000       5.84000000       8.00000000      -0.76383300      -0.27424000      -0.44828300      -0.66879537      -0.46110299      -0.92508355       0.52085381
O        5.39000000       5.67000000       5.52000000       0.03829700      -0.45431000       0.55320000      -0.10510830      -0.28333303       0.30746137       0.33194228
O        9.04000000       4.61000000       7.20000000       0.76582000       2.29467600       0.83033800       0.48833724       2.23637577       0.22179627       0.67135582
O        5.68000000       7.90000000       6.79000000      -0.08455800      -0.32114600       0.31703600      -0.09340191      -0.09304098      -0.23514430       0.59750582
O        8.29000000       7.43000000       7.45000000       0.76166100      -1.58106400      -0.25521200       0.74172597      -1.42085507      -0.77633682       0.54555970
O        3.84000000       3.67000000       8.66000000       2.62153700      -1.04842500       1.24049900       2.37324528      -0.82222093       0.58324914       0.73810191
O        0.39000000       1.18000000       9.95000000       0.88877500       1.04801300      -1.95033300       0.58211820       1.01990104      -2.24075776       0.42329094
O        3.27000000       2.16000000      10.49000000       2.53248100      -0.87419100       4.07233900       2.18198509      -0.59722595       3.36523330       0.83639434
O        1.21000000       3.12000000      11.46000000      -2.02489800       0.06913400       1.28137300      -1.75510789       0.24975661       0.55975624       0.79129133
O        4.03000000       0.28000000      12.09000000       0.95561100      -0.78260800      -0.29664800       0.72414781      -0.60552088      -0.84721020       0.62293964
O        6.70000000       9.25000000       8.65000000       0.57581700       1.53949500       1.24909700       0.47076110       1.55407909       0.56074717       0.69647321
O        7.29000000       1.83000000       9.03000000       0.25199400      -2.46804600      -2.01723500       0.14520341      -2.12621451      -2.51126072       0.61017573
O        8.46000000       2.78000000      11.03000000       1.11684800       0.15646200       0.72136200       0.99932686       0.21161062       0.13078517       0.60467643
O        6.01000000       2.21000000      11.28000000      -0.88202700      -0.25092900      -0.45087200      -1.06679010      -0.25238248      -0.86260242       0.45128866
O        6.11000000       8.73000000      11.49000000      -0.72723800      -0.29415300       0.74244700      -0.49568003      -0.18377953       0.17797185       0.62002709
O        1.37000000       3.74000000       8.89000000      -0.00702800       0.95657200       0.40787300      -0.08221095       0.80739834      -0.18775100       0.61860585
O        2.40000000       6.18000000       9.09000000       1.12310500       1.09963000       1.46640100       0.72114226       1.27618992       0.70625589       0.87782005
O        3.81000000       8.63000000       9.92000000      -0.26400100      -0.73551600       0.52641500      -0.33002005      -0.51806173      -0.05053831       0.62009676
O        1.12000000       8.16000000      10.41000000       0.46026400      -1.96597500       0.74061900       0.11136880      -1.59948855       0.33824168       0.64648873
O        4.85000000       5.90000000      10.62000000      -0.44957200      -0.59655400      -0.15968800      -0.51228089      -0.52490157      -0.40727274       0.26526341
O        2.88000000       4.93000000      11.97000000       1.21787000       1.52456900       1.10993400       0.98792825       1.51113261       0.39771566       0.74853771
O        0.41000000       5.80000000      11.75000000       0.37996300      -0.79908700       0.27473400       0.16727414      -0.51750575      -0.28365727       0.66054929
O        9.86000000       6.24000000       9.11000000      -0.64383200      -0.56705200       1.98910100      -0.58090150      -0.26417133       1.43642399       0.63336310
O        6.59000000       6.82000000       9.23000000       1.47402100       0.57376100       0.30923900       1.30880314       0.51346882      -0.21924863       0.55698408
O        6.69000000       4.24000000       9.51000000      -0.55696100       0.12780300       0.89251200      -0.45936298       0.16093668       0.09890074       0.80027623
O        8.51000000       7.68000000      11.08000000       1.57987700      -0.98916200       0.82585400       1.38275378      -0.72275850       0.10888320       0.78985791
O        4.57000000       2.56000000      13.14000000      -0.77216600       1.78366300       1.90571000      -0.60987643       1.79908042       1.05046227       0.87064590
O        2.55000000       2.09000000      14.98000000       0.18396600       0.67288700       0.72529300      -0.13389837       0.90960973      -0.15558799       0.96593309
O        0.09000000       1.21000000      12.65000000       0.49433500       0.47305500      -1.16451800       0.32752005       0.36926700      -1.70938674       0.57920732
O        8.17000000       9.66000000      12.91000000      -2.11998300      -1.65345800      -1.03827400      -2.00973226      -1.54251625      -1.73395931       0.71305073
O        8.22000000       2.18000000      14.02000000       0.48594400      -2.20389800       1.08812700       0.36473714      -2.08013631       0.35011068       0.75807397
O        6.33000000       3.69000000      14.84000000      -4.91926400       0.71678900      -0.06914500      -4.78758158       0.69782287      -0.48580083       0.43738090
O        9.74000000       0.03000000      14.90000000       1.03992400       0.73833800       0.36883800       1.01232735       0.79335944      -0.74673491       1.11726982
O        8.55000000       4.00000000      16.03000000       1.28319200      -0.21147500       2.01700400       1.08654436      -0.04129529       1.45314056       0.62094558
O        3.88000000       7.62000000      12.35000000      -0.95721300      -1.51705600       1.45561500      -0.90053785      -1.24587724       0.83183274       0.68253520
O        3.49000000       4.40000000      14.69000000       1.36607100       0.61381400       1.91531200       1.30541742       0.68824185       1.10474800       0.81623058
O        1.16000000       4.28000000      13.96000000      -2.17916200       0.87544600      -3.31974800      -2.17650574       1.07855427      -3.76894082       0.49298501
O        5.33000000       5.30000000      12.97000000      -1.99114000      -0.19470000       1.28489200      -1.92438342      -0.22013348       0.63614737       0.65266600
O        4.39000000       0.92000000      16.76000000       4.47593000      -0.20213400       5.73847500       4.46379774      -0.12757609       4.89095687       0.85087781
O        3.61000000       9.93000000      19.38000000       0.37261100      -4.51929300       1.95451800       0.90185763      -3.36320752       1.39491568       1.38916895
O        1.23000000       3.83000000      16.39000000      -1.42579000       0.14392200       2.68268800      -1.30027799       0.38994672       1.93973494       0.79262896
O        1.62000000       7.81000000      14.21000000       7.87832900      -4.68737600      15.03038600       7.56599524      -4.55585955      13.70128213       1.37162897
O        9.93000000       8.07000000      16.66000000      -0.78072300      -1.57300500       2.70473300      -0.46821026      -1.70456743       1.27932043       1.46518732
O        9.93000000       5.65000000      17.64000000      -1.06001600       2.60034400       1.66801700      -0.74112230       2.01506630       0.69212304       1.18178348
O        8.96000000       7.62000000      19.32000000       0.81153500      -0.29099400       2.78568100      -0.46535797      -1.63775197       0.34154516       3.06887808
O        9.86000000       8.89000000      21.97000000       4.34964400      -1.71527300       0.60578000       0.92277643      -0.59289149       1.06910505       3.63563361
O        2.25000000       8.45000000      21.26000000      -0.81583300       1.12576900      -2.70527900       4.70086135       0.16927329      -2.55036240       5.60114272
O        9.75000000       5.86000000      21.41000000       1.45643500       3.85036200       0.62313300       0.79758625       0.34055196       1.29482784       3.63373392
O        1.41000000       6.78000000      23.47000000      -0.17396700       8.77072500      -4.55619200       1.41366296       5.42800612       0.50615866       6.27070432
O        0.79000000       4.02000000      23.49000000       2.29126900       2.31141900      -5.91596000       2.21002159       1.35011029      -2.52833089       3.52232119
Si       7.53000000       1.28000000       1.00000000      -1.23297200      -0.51954900      -1.16373400      -0.95750820      -0.16433050       0.84061938       2.05414045
Si       2.91000000       8.60000000       0.72000000       1.50537900       0.60271100      -2.31161200       1.37558958       1.33368530       1.05173288       3.44430798
Si       4.51000000       0.61000000       2.26000000      -0.45484300       0.43045500      -0.07495700       0.83059905       0.68012014       0.52940383       1.44220177
Si       0.46000000       1.52000000       2.20000000       1.95107900       0.19863400       0.96586300       0.78514628       0.46468793       0.25880268       1.38928690
Si       4.90000000       2.74000000       4.02000000      -0.81568500       0.73889600       1.30002600      -0.51373638       0.40483379       1.10341565       0.49135136
Si       9.95000000       9.58000000       4.44000000       0.89683500      -1.62103500      -0.87202400       0.59558148      -0.79093316      -1.11527872       0.91596703
Si       0.39000000       6.82000000       1.29000000       0.22421700      -0.15864300      -1.02640100       0.15278716      -0.09048574       1.28592346       2.31443125
Si       1.51000000       4.49000000       2.76000000       2.69751300      -1.28134300       0.04420900       1.95954088      -1.25262582       0.55209053       0.89630975
Si       5.09000000       8.02000000       2.50000000       1.54068500      -1.55892900      -0.95771900       1.33867831      -0.58430070      -0.02118335       1.36667701
Si       8.00000000       7.44000000       2.93000000       1.25667800       0.65499100       0.79936400       1.12368363       1.10089841       1.30944381       0.69043633
Si       5.87000000       5.60000000       3.97000000      -0.25348000       0.09230000      -0.07337900      -0.25777931      -0.03473991       0.31035642       0.40424064
Si       2.40000000       3.92000000       5.50000000       1.22418400      -0.13466200      -0.17493800       0.76929379       0.08488578      -0.51987466       0.61164339
Si       7.49000000       1.51000000       5.23000000      -0.67105000       0.42676500       3.02639300      -0.67311780       0.47373492       1.87502055       1.15233197
Si       9.48000000       3.24000000       6.44000000       0.21450700       0.04485000      -0.37824800       0.25014684      -0.16742714      -0.65656950       0.35184462
Si       6.41000000       0.76000000       8.17000000       0.15663000      -0.04600900       1.04664900      -0.07230999      -0.06349065       0.75604352       0.37036559
Si       1.74000000       8.02000000       6.57000000       0.92806300       0.71864300      -1.36401900       0.76898685       0.89668020      -1.39901396       0.24130295
Si       4.61000000       6.69000000       6.53000000       0.66720100      -0.27948000       0.75046700       0.52096751      -0.02874067       0.41398759       0.44437916
Si       2.68000000       4.73000000       8.41000000      -1.55507200       0.26294600       1.49761000      -1.41799773       0.18741379       1.01068845       0.51145583
Si       9.46000000       6.18000000       7.58000000      -0.99075700       1.73133300      -1.47676200      -0.96722810       1.49025955      -1.44498488       0.24429450
Si       6.78000000       7.82000000       7.98000000       1.86774500      -0.66113000       0.01550600       1.34838658      -0.46065107      -0.23087913       0.60879439
Si       1.01000000       2.18000000       8.67000000      -1.65084800      -2.65008200      -1.00288800      -1.31940596      -2.16536565      -0.91785464       0.59332490
Si       3.68000000       2.08000000       8.96000000      -1.24607400      -1.42281800      -1.86982800      -1.13401193      -1.00977909      -1.84613411       0.42862623
Si       4.46000000       1.84000000      11.71000000      -0.74634300      -0.83987400      -0.03401100      -0.74754227      -0.68421954      -0.37873832       0.37824155
Si       7.05000000       2.81000000      10.19000000       1.02440800       0.81500300       2.65066100       0.77968737       0.82210314       2.31590805       0.41472658
Si       9.93000000       2.03000000      11.20000000       0.42732800       1.31300300       3.56335700       0.34237246       1.07430481       2.90675732       0.70378790
Si       2.45000000       7.88000000       9.43000000      -2.35025600      -1.03274900      -0.32306400      -1.84662729      -0.95878877      -0.61364009       0.58612836
Si       4.11000000       6.05000000      12.02000000       1.47215500      -3.15180600       1.31246400       1.20989236      -2.73982517       0.86999031       0.65900900
Si       4.42000000       8.80000000      11.42000000       2.95937200       2.41149600       1.11845300       2.57648738       2.22980481       0.57764409       0.68708559
Si       5.71000000       5.51000000       9.32000000      -0.77397900       0.72272600      -0.00099900      -0.75005200       0.66288411      -0.06155101       0.08843133
Si       9.96000000       6.91000000      10.57000000       0.28545000       0.97140500       2.64455200      -0.09004754       0.90849713       1.85483944       0.87669934
Si       7.55000000       8.35000000      12.21000000      -1.54858600      -0.82662000       1.16926800      -1.59374280      -0.66914571       0.85106467       0.35789754
Si       4.88000000       4.02000000      13.95000000       2.20968400      -0.92378400      -0.58713300       2.06432960      -0.89244301      -0.47185087       0.18814922
Si       8.96000000       0.71000000      13.69000000       1.24746500       3.75730100       0.19579800       0.91097823       3.83977396       0.36884776       0.38726135
Si       7.87000000       3.63000000      14.62000000       2.02900100       0.26048100      -0.08585000       1.75259396       0.05739109      -0.34918074       0.43242276
Si       9.26000000       9.48000000      16.28000000       0.93037800      -0.46437200       2.49967200       0.28510016      -0.15278488       2.35171896       0.73168308
Si       1.37000000       4.47000000      12.33000000      -1.62690300       2.14960600      -1.07904900      -1.19754658       1.48468822      -0.97989170       0.79768086
Si       2.07000000       3.68000000      15.05000000       2.01119100      -2.34489600       2.19989300       1.95063384      -2.38996371       2.02543960       0.19008487
Si       3.15000000       0.94000000      15.93000000      -6.13489500      -2.66826400      -3.70004600      -5.21199191      -1.72680696      -2.98061029       1.50189188
Si       4.48000000       0.97000000      18.51000000      -1.68833700       3.97200800      -3.50749500      -1.76675843       3.32677765      -2.97127500       0.84261736
Si       3.66000000       8.20000000      20.27000000      -9.78778400       2.72855200      -2.53136300      -9.00902004       2.95490539      -1.77672128       1.10778757
Si       9.73000000       4.15000000      17.19000000       1.47628300      -0.57488300      -3.68531400       0.91395711      -0.68982181      -3.31954282       0.68059525
Si       9.05000000       7.08000000      17.73000000       2.46373200      -0.16535500       0.28639400       1.43758173       0.04828356       0.13201176       1.05946198
Si       8.51000000       6.59000000      20.72000000       1.40991900       0.93313600      -5.06393700       0.27719149       0.00542186      -3.50899276       2.13578480
Si       1.32000000       8.52000000      22.50000000      -5.50538600       1.51447500       0.56344600      -1.03910304       0.09576896       4.47339287       6.10312173
Si       0.40000000       5.75000000      23.02000000      -5.81868000      -3.21829000      -4.35774500      -4.69773154      -4.47033199      -1.32720886       3.46529709
Si       1.99000000       3.78000000      22.32000000      -1.85942600      -2.83199100      -5.30925200      -1.71761168      -1.66973841      -2.36544016       3.16811782
