150
Lattice="10.0 0.0 0.0 0.0 10.0 0.0 0.0 0.0 72.66" Properties=species:S:1:pos:R:3:reference_force:R:3:predicted_force:R:3:force_error_norm:R:1 case_id=dft/etch/trj_CF2_30eV.extxyz:958 model=mace selection=prior_outlier pbc="T T T"
C        6.89000000       9.95000000      15.14000000      -0.87906400      -1.41876700       0.25461400      -1.23791681      -1.57656965       0.05865898       0.43826406
C        1.76000000       3.48000000      20.15000000      -2.27978500      -1.17992200       3.47617400      -0.46576842      -3.06730407       3.10455550       2.64404378
C        6.22000000       7.31000000      52.66000000      42.72666300      40.17254800       3.17856700      36.01989849      33.86945679       2.68805213       9.21684620
F        6.23000000       8.55000000      15.37000000       1.55683800       1.69143100      -0.26137000       1.50043977       1.91162472      -0.22490962       0.23020729
F        4.09000000       1.44000000      14.24000000       2.01363900      -0.15159600       0.14986600       1.65011914       0.04019567       0.08250430       0.41649529
F        4.45000000       1.13000000      18.69000000      -1.18032100       0.65093200       0.87626900      -1.08414260       0.67526560       1.01426403       0.16995599
F        4.58000000       5.23000000      22.09000000      -0.81667300      -1.02159600      -0.92316500      -0.71112154      -0.96706390      -0.81893411       0.15804727
F        1.10000000       8.91000000      18.47000000       0.67156600       0.74706400      -0.20055500       0.75570631       0.77665235      -0.14571933       0.10469963
F        7.33000000       4.09000000      20.93000000      -0.64559400      -0.52807200      -0.37840100      -0.61754717      -0.51501734      -0.36407485       0.03409234
F        1.38000000       2.82000000      21.44000000       0.31906700       0.96482100      -2.39555900       0.06754385       1.64501831      -2.85122434       0.85648303
F        3.68000000       7.10000000      18.78000000       0.40369900       1.21514400       2.28093200       0.42500632       1.23159911       2.36233108       0.08573554
F        9.19000000       5.29000000      20.26000000       1.90637900       2.66697400       0.42257000       1.86852380       2.43203888       0.41969855       0.23798272
F        6.01000000       0.18000000      19.98000000      -1.16236300      -1.49606000       0.47679300      -1.22025018      -1.45664281       0.39991048       0.10399790
F        6.25000000       6.94000000      18.92000000       0.80664700      -1.04131500      -2.26160100       0.77634474      -1.02350870      -2.11840284       0.14744831
F        8.25000000       1.74000000      23.75000000       1.27460500      -1.92101100      -1.42596000       1.22387661      -1.80515987      -1.30193404       0.17713636
F        1.45000000       6.39000000      21.17000000      -1.27344400       0.48118800      -0.31908400      -1.17291163       0.37695634      -0.27225026       0.15219854
F        9.18000000       6.74000000      22.31000000      -1.11466200       0.38933300       2.83815300      -1.12511381       0.29765595       2.83772782       0.09227190
F        8.54000000       9.18000000      23.85000000      -0.39568300      -0.57336000       0.25369300      -0.37453477      -0.62816881       0.40085192       0.15845189
F        0.43000000       0.28000000      22.57000000      -1.85448300       0.58042600       0.54685800      -1.68969905       0.50740469       0.53913307       0.18040382
F        4.01000000       2.79000000      22.47000000      -1.19801200      -2.18984900       3.27810500      -1.14479866      -2.20770291       3.22404076       0.07793178
O        4.73000000       1.59000000       0.50000000       1.06109000       0.84460800       1.38028200       1.46040360       1.02070390       1.52262445       0.45904519
O        0.95000000       0.11000000       0.70000000      -0.67592400      -0.49762100       0.05882100      -0.80357970      -0.71111399      -0.11073905       0.30104127
O        6.17000000       3.92000000       0.99000000      -0.07327700      -1.04415900      -1.39664700      -0.10686157      -1.41374758      -1.40892494       0.37131441
O        2.45000000       3.98000000       1.64000000       0.05275500       0.18217500       0.13360800       0.17887609       0.23893489       0.37945716       0.28208159
O        3.75000000       2.67000000       3.51000000       0.83892500      -2.48070000       0.53232100       0.63791930      -2.30645621       0.62639671       0.28216029
O        1.24000000       3.54000000       3.97000000       0.95362200      -0.84766900      -0.55907100       0.82098386      -0.84270839      -0.40148249       0.20603792
O        4.83000000       3.28000000       2.79000000      -0.71597700       0.18222300       0.84048300      -0.17568855       0.09724248       0.59644232       0.59890663
O        3.28000000       5.07000000       4.09000000       0.43605900       0.21285200       0.53303800       0.45227991       0.28978361       0.75099485       0.23170408
O        9.32000000       0.89000000       2.65000000      -0.44009600       0.68678500       0.32646200      -0.27418289       0.50946455       0.21640308       0.26661333
O        6.88000000       1.75000000       2.36000000      -0.58220600       0.54014700      -0.89477500      -0.36736281       0.43702345      -0.75132075       0.27815676
O        8.77000000       2.81000000       4.13000000      -1.97718900      -1.10133700      -0.67188700      -1.91045228      -1.16130833      -0.74980202       0.11883224
O        7.36000000       0.51000000       4.51000000       0.64972800      -0.60918100       0.82147200       0.68448054      -0.58848257       0.70521071       0.12309692
O        9.66000000       4.78000000       5.52000000      -0.89028400       0.18842600       0.93105600      -0.85519419       0.33894573       0.92069250       0.15490283
O        0.86000000       8.89000000       3.13000000      -0.52367400       1.25049600      -0.95272400      -0.66790868       1.35984206      -1.09678028       0.23132751
O        2.97000000       7.43000000       3.55000000       0.91232500       0.04003100      -1.12840400       0.77045390       0.06935838      -1.09324351       0.14907638
O        0.52000000       6.88000000       4.64000000       0.91094300       0.71821000      -0.04405600       0.92508798       0.77212808      -0.16775780       0.13568115
O        5.17000000       7.25000000       4.84000000      -0.28141200      -0.94734400      -0.66413300      -0.23352697      -0.84353253      -0.60235478       0.12994747
O        8.74000000       8.58000000       1.44000000       0.70878900       0.91223100      -0.31746100       0.81841209       0.81784739      -0.53280879       0.25942274
O        7.70000000       6.11000000       1.47000000      -3.10810700      -0.96733100      -1.31913300      -2.98483386      -0.91834172      -1.04948849       0.30050687
O        5.34000000       5.84000000       2.73000000      -0.18878500       0.65506800      -2.31222300      -0.42259264       0.77601979      -1.72396255       0.64447320
O        8.02000000       6.77000000       5.03000000      -3.19155900       1.20618500      -1.42493100      -3.17368476       1.18352350      -1.42961918       0.02924057
O        2.77000000       2.09000000       6.03000000      -0.41038400      -1.25859400       0.19344800      -0.36471024      -1.20118248       0.08227250       0.13319972
O        2.17000000       4.19000000       7.33000000       0.76673300      -0.10441900       0.20769600       0.73514864      -0.12200711       0.12183887       0.09315772
O        1.36000000       2.13000000       8.58000000       2.25188700      -2.17797500      -1.17075400       2.36431985      -2.09636394      -1.43327237       0.29701415
O        4.46000000       2.42000000       7.96000000      -0.54130900      -1.07584400       2.51092600      -0.55935344      -1.08900898       2.11344367       0.39810943
O        5.24000000       0.79000000       5.82000000      -1.70750500       2.08865300       1.26981800      -1.71175548       2.09774282       1.23986334       0.03159071
O        4.85000000       5.00000000       8.26000000       2.25921800      -1.45819300      -0.27726600       2.29858629      -1.40282223      -0.40659437       0.14608768
O        5.10000000       3.64000000       6.01000000       1.40581000       0.11103300       0.04974900       1.39448949       0.11498186      -0.08434050       0.13462444
O        0.22000000       2.38000000       6.25000000       1.56525300       0.27041900       0.66248900       1.54571018       0.27929742       0.59710747       0.06881492
O        7.31000000       3.79000000       7.78000000      -0.89565000       1.93764500      -1.25407700      -0.89721945       2.03301516      -1.37836659       0.15667110
O        7.63000000       1.20000000       7.09000000      -0.51371600      -0.10454200       0.12216400      -0.51889539      -0.20092747      -0.03963014       0.18839938
O        8.83000000       2.37000000       9.18000000       1.63504100      -0.05498700       0.51969200       1.52718647      -0.03395056       0.32888430       0.22018790
O        2.18000000       8.62000000       5.62000000      -0.26346000       0.73568600       1.35565600      -0.33254294       0.70824718       1.09763908       0.26851085
O        3.07000000       6.66000000       7.27000000      -0.50914400       0.25340800       0.36547800      -0.50512722       0.25952967       0.25758092       0.10814522
O        3.77000000       9.20000000       7.60000000       0.38228400      -0.33795400       1.34953700       0.31768777      -0.34718062       1.18875164       0.17352157
O        1.14000000       8.36000000       8.16000000       1.25202700       0.96010100       0.01788600       1.28094779       0.94588808      -0.12674796       0.14818030
O        2.73000000       5.28000000       9.60000000       1.19670800       0.42628000      -0.31735200       1.32596786       0.40874701      -0.70353889       0.40762217
O        9.54000000       6.69000000       7.21000000      -0.26133800       0.47948200       1.58920100      -0.28370005       0.41784177       1.29064682       0.30567005
O        6.47000000       6.09000000       6.85000000       0.08777100       0.01289000      -1.07295800       0.16840610       0.08992469      -1.13613907       0.12817258
O        6.90000000       8.64000000       6.41000000      -0.66883600       2.33379100      -0.51009300      -0.66119949       2.27601539      -0.49619977       0.05991126
O        6.25000000       9.27000000       9.16000000      -0.38589700      -0.62018600      -0.28251900      -0.39599194      -0.58256284      -0.43368903       0.15610826
O        8.59000000       8.10000000       9.41000000       2.02731700      -1.58355600      -2.28888500       2.15881698      -1.63102434      -2.52145434       0.27135583
O        4.12000000       0.52000000       9.79000000       0.58512300       0.56711000       0.38443600       0.60166751       0.57958535       0.17927939       0.20620036
O        4.00000000       3.96000000      13.11000000       0.06634400       0.42586400      -0.43125500       0.06962345       0.48015986      -0.58676899       0.16475253
O        4.29000000       2.97000000      10.78000000       1.58445200       0.45784400      -0.39311900       1.51284905       0.28886343      -0.73217461       0.38553874
O        0.69000000       3.89000000      10.32000000      -0.77334700      -1.33696100       0.43926900      -0.78204001      -1.41247384       0.20843994       0.24302224
O        0.43000000       1.19000000      10.83000000      -1.21121800      -0.53276600       1.70151800      -1.12647901      -0.39351116       1.35383063       0.38400406
O        6.44000000       1.89000000       9.38000000      -0.83285900       0.22189800       1.40625600      -0.70617693       0.19287960       1.12063190       0.31380176
O        8.39000000       2.02000000      12.55000000       0.02674800       0.58688500       0.33605200       0.11595941       0.41611406       0.04982279       0.34503413
O        6.57000000       3.60000000      12.13000000      -0.99286100       2.19779600      -1.22497300      -1.20122242       2.18379492      -1.55003296       0.38636057
O        4.29000000       7.69000000       9.71000000       0.12274500      -0.36376700       1.69364300       0.10870672      -0.26839328       1.30573324       0.39970890
O        1.90000000       5.48000000      12.04000000      -0.30929000      -0.00947100       0.11884500      -0.44279830       0.03348944      -0.33049330       0.47071751
O        4.21000000       8.12000000      12.30000000      -0.69715400      -1.12223800       0.78495200      -0.55245586      -1.15603500       0.42387524       0.39045642
O        4.87000000       5.63000000      11.30000000       0.36763400      -0.51595100       0.70670600       0.34192542      -0.37550156       0.47423765       0.27281589
O        1.56000000       8.00000000      13.27000000      -0.56329300       0.59907100       0.46505600      -0.53522944       0.49578634       0.28543494       0.20909091
O        0.38000000       6.43000000       9.81000000       1.27979800      -1.67562100       2.25689700       1.23759713      -1.54630928       2.00518229       0.28611664
O        8.08000000       9.69000000      11.13000000       0.05917500       1.55835800       1.21005800      -0.03470134       1.37866665       0.87232458       0.39391066
O        6.55000000       7.46000000      11.11000000       2.77975900       1.12266000       0.09651800       2.84505914       1.15041274      -0.12376703       0.23142994
O        9.69000000       9.95000000      13.15000000       1.02165900      -0.43074700       0.74287600       1.02584545      -0.28803816       0.41620794       0.35650437
O        1.80000000       4.07000000      14.44000000      -1.63411200       1.28159100      -0.69625400      -1.53513717       1.30857648      -0.83180715       0.16999674
O        5.29000000       1.31000000      16.50000000       0.48124500       0.94023400      -1.44739100       0.43762450       1.09056812      -1.08604233       0.39379684
O        3.05000000       2.71000000      17.16000000       0.76260400      -2.86559500      -0.17132000       0.59982211      -2.66728369      -0.09189422       0.26857731
O        2.28000000       5.25000000      17.77000000      -3.24888700      -5.56283700       0.45901000      -3.32520195      -5.47656542       0.51665838       0.12880253
O        0.56000000       3.34000000      16.44000000      -0.88307400       1.10385700       0.00811900      -0.75782139       1.12479274       0.11622216       0.16677174
O        8.85000000       4.14000000      14.29000000      -0.96756500      -1.21167600      -1.33998400      -0.89806217      -1.23760532      -1.40038492       0.09566213
O        6.48000000       2.76000000      14.42000000      -1.86580300      -3.28078100       2.39530800      -1.58520801      -2.63521999       2.16223799       0.74148783
O        3.30000000       6.24000000      14.17000000       0.31476800      -0.50886300      -0.78881000       0.22819720      -0.59733336      -0.89643489       0.16402629
O        3.70000000       9.01000000      14.59000000      -1.02080700      -2.43577900      -0.38698600      -1.05387991      -2.44633340      -0.44408175       0.06682168
O        1.22000000       9.34000000      15.51000000      -0.02115000      -0.27999400      -0.54236200       0.01860678      -0.34256396      -0.54293690       0.07413455
O        2.81000000       7.28000000      16.42000000      -0.71571900       3.15075900      -0.88374900      -0.68001338       2.85540634      -0.77520658       0.31668524
O        4.76000000       5.60000000      16.93000000       3.41341500       1.02601000       0.89969100       3.27498125       0.89958135       0.91938866       0.18851022
O        3.41000000       9.78000000      17.02000000      -1.68331000      -1.73719100       1.48589100      -1.75143353      -2.14048435       1.43839913       0.41175456
O        7.97000000       0.21000000      15.54000000      -0.10344800      -0.49415600      -0.14507700       0.27488097      -0.45608925       0.08845269       0.44622640
O        0.09000000       5.97000000      15.61000000      -0.05108700      -1.30800700       0.71813300       0.02446728      -1.36178924       0.72129084       0.09279521
O        9.12000000       7.89000000      14.63000000      -1.87745900      -0.52220200       0.88054400      -1.76072370      -0.51504256       0.73533646       0.18645004
O        7.54000000       5.98000000      16.50000000      -1.05602100       0.47806000      -0.12224900      -1.17963393       0.35872947      -0.02475811       0.19754595
O        9.10000000       7.79000000      17.30000000       0.23324500      -0.52511500      -0.01127900       0.22166850      -0.45208670       0.06797039       0.10838641
O        2.98000000       3.86000000      20.18000000      -0.54385600       0.96162300       0.11049300      -2.49651783       1.11912279      -0.42174823       2.03001850
O        1.15000000       2.92000000      19.12000000       0.60383400       0.58660400      -0.87811700       0.78075952       1.47959016       0.35851777       1.53557562
O        5.07000000       3.15000000      20.38000000       3.82765500      -0.70837200      -2.27594900       3.66966461      -0.79535531      -2.34120605       0.19179557
O        7.30000000       2.15000000      19.13000000       1.51131000      -3.58978700       1.48254000       1.36765199      -3.24511783       1.38923231       0.38489061
O        8.01000000       0.35000000      21.42000000       1.49099700       0.50718600       2.04125300       1.32939431       0.51840209       1.79527200       0.29452993
O        6.49000000       4.40000000      18.38000000       0.41061300       0.01677700       0.66298800       0.33793313      -0.07350136       0.68572305       0.11810770
O        8.36000000       9.66000000      18.76000000      -0.51999700       2.13068700       1.03300000      -0.60282142       2.10726415       1.00400799       0.09082429
O        9.47000000       8.00000000      20.12000000       0.63549000      -1.17439500       0.16781800       0.54319494      -1.04815747       0.25356099       0.17834280
O        5.55000000       6.68000000      52.61000000     -42.72248100     -40.17199100      -3.18521400     -36.01989849     -33.86945679      -2.68805213       9.21377879
Si       2.62000000       3.83000000       3.25000000      -0.16125000       1.71585000      -1.03754700      -0.47620610       1.85978360      -1.52150999       0.59509193
Si       0.03000000       3.36000000       4.94000000      -1.97135000       0.05063500       0.35257000      -1.85569880      -0.12440481       0.41401759       0.21860911
Si       5.62000000       2.46000000       1.58000000      -0.04736800      -1.51369600      -1.07512200      -0.49282760      -1.71176000      -1.51050972       0.65362533
Si       8.06000000       1.48000000       3.43000000       0.24465100       1.43389400       0.24879200      -0.03261330       1.52344558       0.42246428       0.33920059
Si       4.19000000       6.37000000       3.76000000      -0.47713700       0.98466900       0.72242700      -0.18493777       0.57428916       0.55850451       0.52977598
Si       1.61000000       8.00000000       4.22000000      -0.02169400      -0.45045800      -0.43433900       0.11226652      -0.60304826      -0.22433222       0.29211651
Si       9.93000000       9.65000000       1.90000000       1.83244700      -2.76000000       0.47197300       1.89619712      -2.24775627       1.00857348       0.74457893
Si       6.16000000       5.44000000       1.33000000       4.07361500       2.48748200       3.94485500       3.85717483       2.68356084       3.25402517       0.75002608
Si       9.39000000       6.36000000       5.64000000       2.11039800      -1.63167100       0.00041700       1.97964674      -1.61877471       0.28777376       0.31596853
Si       1.63000000       2.61000000       7.10000000       0.25057900       2.66441700      -1.91798500       0.13213257       2.56573850      -1.66998829       0.29200920
Si       4.33000000       2.15000000       6.36000000       3.28596500       0.12449500      -0.59328100       3.20598621       0.06631332      -0.27761979       0.33079256
Si       7.53000000       2.32000000       8.28000000       0.78793200      -2.32249100       0.18051800       0.73497081      -2.35867996       0.56331198       0.38813112
Si       6.05000000       4.56000000       7.11000000      -3.17454700       0.39523500       0.23131000      -3.20675609       0.25984091       0.47866568       0.28382004
Si       6.78000000       0.29000000       6.02000000       0.39361400      -0.91655500      -0.74245000       0.49281229      -0.80886754      -0.63393042       0.18224540
Si       3.31000000       5.21000000       8.08000000      -3.73527200       1.19947300      -1.45784800      -3.67988834       1.17501283      -1.03223427       0.42989848
Si       2.50000000       8.24000000       7.18000000      -0.02525500      -1.83043200      -0.68803800      -0.05314409      -1.73216931      -0.40097901       0.30469036
Si       4.61000000       9.12000000       9.05000000      -0.74038300       1.77703300      -1.13220800      -0.70940950       1.68012260      -0.76968908       0.37652483
Si       9.93000000       7.39000000       8.65000000      -2.16826700       1.18392000      -1.68622200      -2.20738455       1.13491365      -1.19712960       0.49309551
Si       6.56000000       7.24000000       5.65000000       1.29454000      -1.09349100       0.98971500       1.20799973      -1.08596169       1.01042869       0.08930267
Si       5.03000000       4.07000000      11.82000000      -1.77907600       0.44697300      -0.74982800      -1.49342317       0.36002147      -0.20162453       0.62424767
Si       4.84000000       2.02000000       9.55000000      -1.25155100      -1.39566700      -1.39112000      -1.35334985      -1.27932126      -0.79435217       0.61646669
Si       0.36000000       2.37000000       9.72000000      -2.23544100       2.25418600       2.10467400      -2.27651721       2.20749820       2.62181388       0.52086530
Si       2.70000000       4.94000000      13.36000000       0.60386100      -0.99602900       0.11237700       0.61847624      -1.07362547       0.58277715       0.47698126
Si       9.16000000       0.75000000      11.85000000      -0.93568300      -0.62306000      -1.01315800      -1.00746916      -0.54550817      -0.41512118       0.60730188
Si       7.54000000       3.22000000      13.33000000       4.47642700      -1.32747400       0.69517100       4.33119114      -1.23859885       1.21668839       0.54860973
Si       1.42000000       5.33000000      10.46000000      -1.22486200      -0.87672000      -0.27083800      -1.17013322      -0.92320312       0.35438932       0.62933705
Si       5.01000000       7.27000000      11.17000000      -3.43744700      -2.40161600      -1.13604700      -3.47199858      -2.38336777      -0.56142979       0.57594423
Si       7.30000000       8.58000000      10.19000000       2.14107200       1.72693400      -0.15581000       2.00492879       1.79213604       0.43851098       0.61319141
Si       1.69000000       3.45000000      17.58000000       1.06402000       3.84618600      -0.50408200       1.20232917       3.69360000      -0.79633372       0.35752340
Si       5.60000000       1.30000000      14.91000000      -0.45176700       3.54170200      -0.91904800      -0.47864239       2.45552264      -0.88955227       1.08691209
Si       0.30000000       4.44000000      15.10000000      -0.66354200      -1.87810400       0.26478000      -0.72056435      -1.64983122       0.28861933       0.23649170
Si       3.17000000       7.71000000      13.55000000       0.40305100       3.71245700      -0.54487300       0.44981942       3.87689573       0.03162475       0.60131276
Si       2.79000000       8.88000000      15.95000000      -3.06028200      -3.49058200      -3.18232600      -2.81218648      -3.01788091      -3.32504118       0.55259871
Si       3.41000000       6.29000000      17.50000000       0.32215600      -0.72317500      -1.62125700       0.33400897      -0.62307223      -1.71181572       0.13550624
Si       0.33000000       8.84000000      14.12000000       2.57010700      -0.53767300       0.41026100       2.34398666      -0.59054275       0.76292443       0.42225243
Si       8.77000000       6.91000000      15.97000000       2.89151900       0.90754600      -0.79013300       2.94983788       0.92224487      -0.79320284       0.06022103
Si       6.36000000       5.84000000      17.64000000      -2.88044100      -0.83157800       0.64017900      -2.56853090      -0.52045675       0.46680173       0.47343850
Si       3.85000000       1.20000000      17.23000000       2.41719300       6.10013700       2.42185300       2.47217083       6.04771216       1.98301102       0.44536862
Si       4.14000000       3.83000000      21.40000000      -0.04436300       3.13494100      -0.71341500       0.29631631       3.26261344      -0.56557221       0.39270871
Si       6.53000000       3.41000000      19.69000000       0.30082200       1.93674400       0.22770100       0.19643547       1.73804530       0.38298384       0.27292944
Si       7.50000000       0.56000000      19.90000000       1.46630800       1.42151000      -2.47136600       1.64292092       1.23389516      -2.17247459       0.39462327
Si       9.86000000       6.70000000      20.96000000       0.94243700      -3.48421500      -2.71544500       0.83053403      -2.98257031      -2.95149052       0.56558568
Si       9.57000000       8.58000000      18.60000000      -1.95509800       0.47747200       0.16756500      -1.93528277       0.25315800       0.14024493       0.22683870
Si       8.82000000       0.40000000      22.92000000      -0.14202400       2.00864100      -1.78596300      -0.14925715       1.92544218      -2.12397493       0.34817586
150
Lattice="10.0 0.0 0.0 0.0 10.0 0.0 0.0 0.0 48.69" Properties=species:S:1:pos:R:3:reference_force:R:3:predicted_force:R:3:force_error_norm:R:1 case_id=dft/etch/trj_CF2_30eV.extxyz:339 model=mace selection=prior_outlier pbc="T T T"
C        5.63000000       3.20000000      15.88000000       0.39769000       0.91016700       0.62002600      -0.01804898       0.98756990       0.22608585       0.57794372
C        3.18000000       2.10000000      27.86000000      -0.67405600       2.66480200       5.99510300      -0.74612583       0.87052650       4.74353924       2.18884227
F        5.69000000       0.63000000      14.76000000       1.07061800       1.01672800       0.52027100       1.00051263       0.90128117       0.56262607       0.14155100
F        4.39000000       2.78000000      16.27000000      -0.22520800      -0.26008400       0.68326600       0.08912173      -0.23718965       0.69031831       0.31524129
F        2.14000000       9.58000000      14.05000000      -0.06979800       0.07383000       0.00408600      -0.07826430       0.05868965       0.06602645       0.06432362
F        0.10000000       8.54000000      15.24000000      -0.09558000      -0.08556500       0.13215000      -0.09513988      -0.10731545       0.17877997       0.05145512
F        5.29000000       7.72000000      16.02000000      -0.38110200       0.28898000      -0.08096600      -0.26279384       0.24580708       0.07396532       0.19966080
F        2.95000000       3.81000000      19.99000000       0.68565900       0.00398100      -0.14566700       0.77258225       0.05622536       0.08565435       0.25257611
F        6.26000000       3.87000000      16.96000000      -0.74082500      -0.40261900      -0.76211100      -0.71163621      -0.56155841      -0.84129671       0.17995582
F        9.73000000       2.93000000      16.47000000      -0.51572200      -0.01603500      -0.19632000      -0.58329357       0.01714000      -0.03880385       0.17457902
F        7.49000000       1.08000000      16.64000000      -0.53622800       0.67503600      -1.26859000      -0.42030645       0.46374397      -0.91556408       0.42744523
F        4.34000000       6.72000000      18.06000000       0.24673300      -1.44327300       1.43736400       0.37877596      -1.45882332       1.62490918       0.22989204
F        0.86000000       8.60000000      18.14000000       0.20906200       0.59694200      -0.27901900       0.10123078       0.50032568      -0.03762619       0.28148317
F        8.84000000       5.13000000      17.68000000      -0.83983200      -0.02963500       0.24249500      -0.96056557      -0.03826872       0.41656876       0.21202077
F        4.23000000       1.01000000      20.64000000      -1.22895200      -0.26312500      -0.27515200      -1.00727197      -0.21083941      -0.04340968       0.32493126
F        1.77000000       0.84000000      21.58000000       0.11251200       0.21010800      -0.35153500       0.03898502       0.23392582      -0.04796654       0.31325280
F        1.71000000       1.98000000      24.75000000      -0.53048200       0.99275500      -1.43589800      -0.95281907       0.86712676      -1.41898740       0.44095014
F        8.06000000       3.37000000      20.58000000       0.30796300       0.02297400       0.34185200       0.17908321       0.03664626       0.42669774       0.15490555
F        9.29000000       3.03000000      22.88000000       0.07149700      -0.32837000      -0.18892300       0.01724875      -0.38303181       0.19809793       0.39460865
F        1.89000000       6.16000000      19.89000000      -0.37714900      -0.65329000      -0.50679100      -0.27088328      -0.55078011      -0.26647948       0.28204664
F        2.91000000       8.80000000      20.52000000      -0.06088700       0.37293000      -0.11022700      -0.02484671       0.25464596       0.08584214       0.23180406
F        8.82000000       5.40000000      22.06000000       0.14448800      -0.99162500      -0.51012200       0.03015072      -0.77161035      -0.26658789       0.34754615
F        3.72000000       0.38000000      24.73000000       0.68940700      -0.03463100      -0.36609500       0.64354515      -0.45235665      -0.40618699       0.42214381
F        9.68000000       1.98000000      28.14000000       3.20159900      -0.72025500       1.78297000       3.09896326      -0.96200313       1.59578707       0.32251155
F        9.85000000       0.66000000      26.52000000      -0.94263300      -2.58608400      -3.33719600      -0.92610182      -2.55330926      -3.01006446       0.32918462
F        5.15000000       4.96000000      24.75000000      -0.36532300      -0.23530500       0.74800400       0.00198877      -0.33097634       0.22828290       0.64356893
F        0.91000000       9.60000000      28.69000000       0.51289800      -1.08172200       1.23935100       0.39394171      -1.67129241       1.50583984       0.65784510
F        4.01000000       2.84000000      27.06000000       0.70089700      -3.20688900      18.93540900      -0.82932521      -2.71873996       9.94890317       9.12891869
F        2.33000000       3.22000000      28.20000000      -0.23307500      -2.23959700      -0.46223200       0.31459806      -2.41262120      -0.93233118       0.74221048
O        0.85000000       3.36000000       1.75000000       1.26803300       0.97947000       0.00138800       1.26179837       1.42234178      -0.17110344       0.47531840
O        4.23000000       2.25000000       2.46000000      -0.26584300      -1.43458200      -0.41793400      -0.32093522      -1.42111955      -0.88165897       0.46718009
O        0.69000000       0.74000000       2.38000000       0.98762800      -0.24000800       1.12860700       0.46742406      -0.13207027       0.57059709       0.77047891
O        2.24000000       4.96000000       3.48000000       0.37691600      -0.58304000       2.50976500       0.27934158      -0.32298803       1.10842345       1.42860279
O        6.12000000       1.12000000       0.87000000      -3.80268400      -0.69102100       0.24285300      -3.71446086      -0.75759186       0.10553668       0.17626904
O        8.72000000       1.79000000       1.10000000       2.61678200       0.33860500      -1.37358700       2.26065019       0.18345311      -0.92603625       0.59262438
O        5.88000000       4.32000000       3.30000000      -0.65978000      -0.30910800      -0.10098700      -0.69371805      -0.14498133      -0.46321241       0.39911978
O        1.67000000       8.22000000       0.56000000      -2.63683600      -2.68507100      -1.39719900      -2.11251116      -2.33136845      -1.05795418       0.71771100
O        2.80000000       5.31000000       0.95000000      -0.93855600      -1.08141900       0.16308600      -0.31892696      -0.53696335      -0.15141810       0.88277117
O        0.59000000       6.11000000       1.80000000      -2.12939100      -1.36440200       1.33175000      -1.46030208      -1.53992806       1.27598782       0.69397320
O        4.56000000       9.51000000       2.52000000      -1.83930500       1.38813500      -0.10364900      -1.75738329       0.68056618      -0.84011597       1.02457230
O        4.88000000       6.88000000       2.72000000       0.75837100      -0.81163500       0.20370100       0.43935342      -0.48401963      -0.73793668       1.04679777
O        8.96000000       7.77000000       0.75000000      -0.23636300      -1.42455100      -0.22747500      -0.43038396      -1.10572229      -0.00997850       0.43197293
O        6.72000000       8.55000000       1.72000000       1.68454000      -0.25261600       0.00854200       1.11075576      -0.27486733      -0.48659098       0.75820851
O        7.53000000       6.46000000       2.95000000       0.36373000      -0.13941500       0.25307000       0.36346915       0.09127357      -0.19378114       0.50288490
O        9.12000000       8.67000000       3.24000000      -0.23676800      -0.52345600      -0.33382100      -0.42602126      -0.66192524      -0.70312586       0.43746612
O        3.86000000       3.24000000       4.76000000      -0.32545800      -0.06060800       0.98400800      -0.16463945      -0.11419265       0.48860099       0.52360484
O        1.06000000       3.65000000       5.34000000       0.09040900       0.22460200       0.99989300       0.34639933       0.23358929       0.48006189       0.57951377
O        6.42000000       1.97000000       4.10000000      -1.79665900       0.44925700       0.15551600      -2.08082998       0.53310035      -0.30735817       0.54957743
O        8.80000000       0.89000000       4.40000000       0.07197700       0.81604300       1.24978000       0.32715069       0.57573780       0.81826796       0.55593420
O        8.53000000       3.50000000       5.03000000      -0.03046800       0.03067200       1.26280800      -0.14181502      -0.11549869       0.84470071       0.45670312
O        7.17000000       1.87000000       6.57000000       0.42789800       0.37811300      -0.86188900       0.68149742       0.49701526      -1.59062659       0.78071051
O        9.68000000       2.99000000       7.48000000       0.28631700       0.11463700       0.12761600       0.17415119       0.21664804      -0.34125408       0.49277437
O        1.20000000       9.58000000       4.82000000       1.14370700      -0.42397200       0.48719000       0.81312868      -0.16740507      -0.17458967       0.78298208
O        3.51000000       7.86000000       5.37000000      -0.39317500       0.67154100       0.95010100      -0.33989347       0.63873976       0.62276500       0.33326221
O        2.94000000       5.35000000       6.10000000      -0.18259300      -0.66745400       0.45889200      -0.21394995      -0.87979674      -0.15349216       0.64891221
O        1.02000000       7.47000000       6.20000000      -3.15280200      -3.21821800       1.35686500      -3.01560022      -3.09554448       0.99461120       0.40632615
O        2.28000000       9.26000000       7.34000000       1.36650000       0.80165100      -0.75486300       1.25795831       0.80218248      -1.28896210       0.54501690
O        5.04000000       6.25000000       7.36000000      -0.67711000      -0.55226300       1.29232300      -0.68601015      -0.35973509       0.70418649       0.61891095
O        5.69000000       6.15000000       5.06000000       0.53089100       0.09400100      -1.37384100       0.66454850      -0.11817953      -2.23491104       0.89684252
O        8.50000000       8.06000000       6.58000000      -0.91175600       0.59305700       0.05820300      -0.86037502       0.60525823      -0.20488482       0.26833576
O        9.27000000       5.48000000       6.79000000       0.42245000       0.72268600      -0.59917400       0.39870594       0.54443756      -0.82737823       0.29053994
O        5.92000000       8.44000000       6.32000000      -0.57210300      -0.23472100       0.09496200      -0.69356258      -0.33307945      -0.30562314       0.42999450
O        2.28000000       2.13000000       8.01000000      -1.56669800       0.93091300       0.72846900      -1.63672367       0.91691468       0.50109430       0.23832499
O        4.99000000       1.77000000       8.16000000      -1.14936900       0.36914800       0.44253300      -1.09826104       0.34084036       0.21017417       0.23959126
O        3.94000000       4.22000000       8.33000000       0.62135900      -0.28285100       0.20962400       0.51384689      -0.20127225      -0.01020817       0.25795373
O        1.50000000       4.69000000       8.22000000      -0.33854700       0.00895800       0.60504900      -0.29147756       0.07461546       0.40366781       0.21698114
O        3.50000000       2.58000000      10.29000000      -0.40316300       0.19767700      -1.07132000      -0.43292354       0.23308333      -1.33831478       0.27097142
O        0.53000000       2.98000000      10.06000000       0.33602900      -0.91952800      -0.81749400       0.41219599      -0.90756378      -1.13274810       0.32454537
O        4.37000000       0.60000000      11.55000000       0.38445500       0.31325200       0.76093600       0.33180529       0.33115484       0.71502841       0.07211110
O        6.56000000       4.38000000       8.78000000       0.35675600       0.28100400       0.91375400       0.30728200       0.32284695       0.69694109       0.22628820
O        7.39000000       1.84000000       9.34000000       0.38118100       0.81610500       1.33344500       0.24088254       0.79877019       0.95751125       0.40163458
O        8.29000000       4.01000000      10.86000000      -0.75695300      -0.72764400      -0.20969700      -0.73705206      -0.72305683      -0.26020046       0.05447650
O        5.85000000       2.93000000      11.17000000       2.75990500       0.91801700      -1.12637300       2.78209024       0.94833104      -1.16298887       0.05245805
O        8.39000000       1.10000000      11.89000000      -0.29292500       0.44360400       0.63045900      -0.23135667       0.48762403       0.71748266       0.11533230
O        2.90000000       6.90000000       8.40000000      -0.38208400      -0.55490400      -0.01241900      -0.43361250      -0.68282605      -0.26189304       0.28505532
O        4.25000000       8.92000000       9.40000000       0.69477900       0.68609800       0.38399000       0.54311721       0.61965356       0.09133772       0.33624622
O        1.71000000       8.90000000       9.74000000      -0.76771500      -0.18645700       0.82427100      -0.68444593      -0.19012179       0.57249742       0.26521144
O        2.74000000       6.50000000      11.41000000       0.12135500       0.31746800      -0.31638100       0.09215185       0.30598197      -0.32684020       0.03307791
O        0.19000000       7.55000000      11.44000000      -1.08319800       2.71624300      -2.46265500      -1.10329022       2.70588715      -2.51044314       0.05286442
O        5.09000000       5.98000000      10.18000000       0.80513700      -0.42477600      -1.53171500       0.86887404      -0.43113712      -1.78393002       0.26022161
O        6.96000000       9.80000000       8.10000000       0.06419500       0.69731300      -0.04539200       0.03354939       0.58663861      -0.33558770       0.31209216
O        9.80000000       7.36000000       8.65000000       0.60088400       0.33744200       1.95924800       0.52510146       0.17170511       1.43520096       0.55483061
O        6.96000000       7.19000000       8.61000000       0.15812200      -0.14257900       0.05878300       0.23948504       0.07130469      -0.24027245       0.37656386
O        9.21000000       9.66000000       9.91000000      -0.44121300      -0.07624400       0.33617000      -0.34392141      -0.15503234       0.19353636       0.18978306
O        6.63000000       9.59000000      10.59000000      -2.08929700      -0.50342000       1.02901500      -2.01809364      -0.54156174       0.91385431       0.14066519
O        3.88000000       2.92000000      12.95000000       1.46736400      -0.26173600      -1.16390700       1.47753305      -0.27340064      -1.16577602       0.01558739
O        9.87000000       0.80000000      14.09000000       1.31919600      -1.79046200       1.74017300       1.42785855      -1.89393950       1.92406245       0.23734042
O        9.99000000       2.92000000      12.78000000      -1.25361300      -0.03420500      -0.63147800      -1.24572843      -0.06495454      -0.62198826       0.03313240
O        5.47000000       4.09000000      14.86000000       0.47260700       0.67984900      -0.28169200       0.64022694       0.38480385       0.23915809       0.62163727
O        7.68000000       2.22000000      14.15000000      -0.00768400       0.30323700       0.14676100      -0.07090554       0.44564789       0.19730799       0.16380728
O        0.61000000       5.12000000      11.55000000      -0.23332400      -0.85202300       0.15466300      -0.24936246      -0.88553328       0.09208817       0.07277211
O        4.89000000       7.98000000      11.83000000       0.06255000       0.94296100      -0.42528700       0.07189256       0.90686257      -0.48335307       0.06900759
O        2.82000000       4.67000000      14.46000000       0.64061900       0.06844500      -0.18554500       0.61441872       0.16482161      -0.00818573       0.20354660
O        4.75000000       5.53000000      12.76000000       0.36359600      -0.78288600       0.64739300       0.34856110      -0.74581607       0.60017546       0.06188477
O        1.27000000       6.67000000      13.62000000       0.44746800      -0.23707000       2.08441300       0.43220586      -0.25912818       2.19180989       0.11069593
O        2.84000000       6.87000000      15.86000000      -0.75069300      -0.32182500      -0.57957700      -0.62762494      -0.12068807      -0.26458588       0.39347328
O        0.65000000       5.33000000      15.90000000       0.60674200       0.39820800      -1.20403200       0.40165001       0.26484717      -0.74529483       0.51989194
O        1.42000000       0.49000000      16.38000000      -0.39070200       0.37533400      -0.37618100      -0.28781359       0.41795228       0.09029522       0.47958566
O        2.17000000       0.75000000      18.94000000      -0.06964800       0.16572900      -0.16735400      -0.03770598       0.28795678       0.30339941       0.48741019
O        1.24000000       4.13000000      18.16000000      -0.94384500       0.40648800      -0.94260300      -0.69960687       0.40160376      -0.32353540       0.66552296
O        3.29000000       8.92000000      17.39000000       1.11385200      -0.07267600      -0.55057200       0.93881121       0.16855371      -0.20622566       0.45541789
O        0.57000000       3.96000000      20.77000000       1.74860800       0.79662100      -1.78756100       1.45923027       0.69463484      -1.32410397       0.55581748
O        4.06000000       2.87000000      25.59000000       1.01723100       1.40320200     -18.01529300       1.65325364       1.15141200     -10.65189178       7.39510653
O        2.31000000       0.84000000      26.74000000      -0.04100300       1.05327200       0.67364900       0.34235844       1.17003172       1.23141453       0.68680508
O        5.22000000       4.71000000      27.56000000       0.37307000      -0.01289400      -1.18608500       0.76321836       0.63404203      -1.28241613       0.76159152
O        3.16000000       5.42000000      26.65000000      -0.27565100      -0.32975900      -0.72464400      -0.57850924       0.16859914      -0.98803345       0.63988902
Si       0.35000000       1.91000000       1.20000000      -4.58288700      -0.25650700       2.91324200      -3.42716603      -0.35026436       2.51725443       1.22527040
Si       4.60000000       0.87000000       1.51000000       4.71010600       1.67492200       0.37597000       4.47427493       2.03240773       0.76958176       0.58167221
Si       1.62000000       4.87000000       1.99000000       2.33075700      -0.78264000      -3.06658200       1.39654021      -1.23511283      -1.29859945       2.05018413
Si       5.07000000       2.89000000       3.68000000       1.38453600       1.45792400      -1.14121000       1.43543679       1.28113167      -0.30378067       0.85739973
Si       0.04000000       9.99000000       3.70000000      -1.45628600      -0.20017600      -1.72646100      -1.38454533      -0.17489448      -0.49824738       1.23056677
Si       0.43000000       7.02000000       0.50000000       3.68207600       5.66400300       1.61704400       2.82706954       4.78970472       0.52842342       1.63723190
Si       5.17000000       8.19000000       1.80000000      -0.66908000      -0.25246800      -0.31230100      -0.08508114      -0.09674147       1.37162225       1.78910674
Si       8.12000000       7.82000000       2.17000000       0.82422100       1.13187000       0.24776900       1.17109292       1.10696046       0.84349569       0.68980497
Si       6.06000000       5.93000000       3.44000000      -1.05920900      -0.24568400      -0.13562300      -0.91761805      -0.48260321       1.07922946       1.24581106
Si       2.54000000       4.22000000       4.91000000       0.19467400       1.36096000      -1.32193600       0.12238764       1.24591156       0.20621333       1.53417790
Si       9.66000000       4.02000000       6.13000000      -0.38106000      -1.23005000      -0.82956700      -0.39221224      -1.13106939       0.06070577       0.89582763
Si       7.76000000       2.03000000       4.98000000       1.02707100      -0.32090800      -0.66671300       0.94327416      -0.15959339       0.42174470       1.10353273
Si       6.50000000       1.37000000       7.89000000       1.76751300      -2.18293600      -0.46851500       1.71617096      -2.09468619       0.49579994       0.96970477
Si       2.06000000       8.57000000       5.85000000       0.68610300       1.97164600      -2.05784800       0.77779872       1.80636138      -1.00925127       1.06549623
Si       4.90000000       7.20000000       5.97000000       0.37512800      -0.20079300      -0.87913000       0.26845480       0.00718935       0.13240348       1.03818871
Si       2.93000000       5.37000000       7.76000000      -0.45660000       0.74324600      -1.58823400      -0.38978444       0.77039366      -0.85570356       0.73607211
Si       9.66000000       7.07000000       7.07000000       1.73529400      -1.17951500      -1.71940000       1.66233260      -1.07553183      -1.01438234       0.71636985
Si       7.13000000       8.34000000       7.40000000      -0.92712200       0.22410600      -0.13972300      -0.91568424       0.15480529       0.51892117       0.66237871
Si       0.96000000       3.16000000       8.48000000       0.49401000      -0.20538300      -0.60771300       0.68067817      -0.34951090      -0.01064902       0.64195269
Si       3.67000000       2.65000000       8.65000000       0.59266600      -0.13037700       0.71075400       0.56016726      -0.19547651       1.16867016       0.46366078
Si       4.47000000       2.22000000      11.52000000      -2.51534300       0.71664100       1.76726600      -2.42565151       0.65794230       1.85975556       0.14157832
Si       6.99000000       3.42000000      10.04000000       0.63852700       0.03801600       1.08755900       0.59939470      -0.04985576       1.26303157       0.20010849
Si       9.87000000       3.71000000      11.34000000       0.00190800       1.38148400       0.05258400      -0.08625825       1.41794300       0.28411055       0.25041383
Si       7.94000000       0.47000000      10.53000000       0.19301700      -0.97433300      -2.40820500       0.15256198      -0.82541105      -2.12156701       0.32553908
Si       2.85000000       8.52000000       8.65000000      -0.45510400      -0.77975400       0.68456400      -0.36404903      -0.65517664       1.27034250       0.60576149
Si       0.19000000       8.33000000       9.93000000       0.33445800      -0.22472700       0.19921500       0.32816335      -0.09469406       0.66252515       0.48125303
Si       4.36000000       6.47000000      11.50000000      -0.66605100       0.82626400       1.33699700      -0.73314017       0.88573515       1.47057744       0.16087731
Si       1.24000000       6.53000000      12.04000000       0.55508700      -2.04638500      -0.57835100       0.62015645      -2.00860476      -0.56746387       0.07602572
Si       4.98000000       9.30000000      10.85000000       1.17876800      -1.46767700      -0.57755900       1.21486715      -1.43080055      -0.28321698       0.29883147
Si       5.89000000       5.94000000       8.74000000      -0.07828900       0.23607700      -0.71741500      -0.03051728       0.04853282      -0.05476368       0.69033451
Si       4.28000000       4.33000000      13.77000000      -1.96198200      -0.58139300      -0.86524500      -1.92918198      -0.65120562      -0.94133005       0.10834472
Si       0.88000000       9.90000000      14.98000000       0.02846500      -0.26071800      -0.45057300      -0.05544881      -0.25427626      -0.82000335       0.37889551
Si       8.94000000       1.73000000      13.28000000       0.68102900       2.02805900      -1.28420200       0.68543479       1.94398981      -1.48385118       0.21667218
Si       6.73000000       1.77000000      15.37000000      -0.77064300      -2.66379300       0.70780900      -0.93037937      -2.05201578       0.39949498       0.70345193
Si       1.88000000       5.91000000      14.96000000      -0.41467500      -0.39968200       0.38228100      -0.28662085      -0.40193945      -0.11521224       0.51371440
Si       1.63000000       4.60000000      19.64000000      -0.51044500      -0.80287000       2.85683000      -0.68672543      -0.91673924       1.60995406       1.26441314
Si       0.05000000       4.37000000      17.05000000       2.10041300       0.38871000       0.33849100       2.21891903       0.40104571      -0.33960986       0.68848865
Si       1.95000000       9.72000000      17.71000000      -0.97334100      -0.59050900       1.01142800      -0.73410602      -0.62157708       0.14970151       0.89485817
Si       3.92000000       7.54000000      16.83000000       0.31080500       1.30695900      -0.88817600      -0.09427639       1.10053115      -1.50488960       0.76618474
Si       2.75000000       0.39000000      20.42000000       1.34129200      -0.27698600       1.04268000       1.02105506      -0.15338262      -0.16508661       1.25559933
Si       9.21000000       3.90000000      21.57000000      -1.68703000       1.50395800       0.93945500      -1.07273983       1.25682703      -0.19621276       1.31459780
Si       3.09000000       1.65000000      25.41000000      -2.79964200      -2.93478000      -1.72772200      -2.72735090      -2.01087429      -0.04675676       1.91949782
Si       4.40000000       4.55000000      26.15000000       1.33099000       3.21777400      -0.67949100       1.18388851       2.92461687       1.29157029       1.99816480
Si       0.84000000       0.75000000      27.69000000      -1.95653400       4.04974200      -1.46358800      -1.63308701       5.33861468      -1.98813877       1.42862320
150
Lattice="10.0 0.0 0.0 0.0 10.0 0.0 0.0 0.0 54.11" Properties=species:S:1:pos:R:3:reference_force:R:3:predicted_force:R:3:force_error_norm:R:1 case_id=dft/etch/trj_CF2_30eV.extxyz:232 model=mace selection=prior_outlier pbc="T T T"
C        9.85000000       9.93000000      33.35000000      -1.10612800      -1.72675100      -0.99065600      -1.23468913      -1.03478777       0.76515856       1.89161990
C        9.95000000       0.75000000      32.19000000       0.31350700       1.91757000      -3.07915500       0.54777067       1.60231412       0.01398271       3.11797476
C        3.88000000       5.51000000      19.04000000       9.07044400      -0.41151600      -1.53349100       5.52905049       0.22302203       1.10447649       4.46127549
F        3.65000000       7.33000000      14.39000000      -0.85020600      -0.78786700       0.72754800      -0.85439978      -0.49860230      -0.75983758       1.51525824
F        4.64000000       0.72000000      14.51000000       0.29250000      -1.13835700       0.56252300       0.48129245      -1.12489934      -0.61132283       1.18900704
F        7.51000000       7.93000000      14.43000000      -0.55188000       1.24210800       1.27192300      -0.32132167       1.30587888       0.15865366       1.13868015
F        4.59000000       8.03000000      16.31000000       0.79339600      -1.99138200       2.56338000       1.29891073      -0.92754997       0.71917845       2.18823287
F        7.80000000       7.19000000      11.89000000      -0.53635300      -0.70803500       1.94625600      -0.38635073      -0.74492712       0.76337553       1.19292411
F        0.69000000       6.88000000      13.99000000      -0.06059500      -0.60633200      -0.32538400      -0.24494917      -0.46682916      -1.67788779       1.37212026
F        2.74000000       9.96000000      12.69000000      -0.01655500      -1.28763100       0.35863400       0.01072425      -1.20554609      -0.85447611       1.21619005
F        1.48000000       5.58000000      21.06000000       1.44692700      -1.31271400      -1.72526100      -0.15180893      -1.46633215       1.70520049       3.78782538
F        4.94000000       3.31000000      16.30000000      -0.70820600       3.10473500       1.49625600      -0.02773645       1.70794938      -0.40416975       2.45472339
F        9.94000000       3.20000000      16.96000000      -0.60005700       1.29383000       0.37685000      -0.86364470       0.79979404      -0.06941988       0.71603548
F        6.84000000       9.12000000      17.73000000      -2.94247500       1.10354100      -0.36493800      -2.00520946       1.65892571      -0.33922816       1.08976138
F        3.89000000       1.58000000      17.55000000       2.60037400       3.05318400       1.93310300       2.57870196       2.06486656       1.52046308       1.07122021
F        0.32000000       5.15000000      18.79000000       1.96740500       1.95056700       0.32687100       0.47929691       1.42929995       0.88540227       1.67276484
F        8.09000000       4.54000000      11.94000000       0.77332500      -0.14864200       1.82333700       0.91698777      -0.11697633       0.53591885       1.29579597
F        9.37000000       2.53000000      19.58000000       1.08645600       0.92345300      -1.37200900       0.90662157       0.50716099      -0.17258494       1.28228606
F        3.30000000       9.89000000      20.17000000      -1.14381500      -1.63954100      -3.30380200      -0.96521950      -0.87816145      -1.21853725       2.22708874
F        7.72000000       2.37000000      22.69000000       0.11485400       0.24452100      -2.89818900       0.32891068       0.02583069      -0.19361278       2.72183362
F        6.57000000       0.21000000      22.42000000       0.34246700      -0.49614900      -2.90587000       0.46875755      -0.39862693      -0.27772981       2.63297943
F        8.77000000       0.34000000      23.75000000       0.53344400      -0.63086600      -2.22149900       0.60837406      -0.59333170       0.60718581       2.82992599
F        0.90000000       9.06000000      33.34000000       0.49299500      -0.16045400      -3.11995500       0.69160765      -0.31769414      -0.04548907       3.08488447
F        4.49000000       5.77000000      20.39000000      -3.31276100      -1.47028400      -9.77040300      -1.58349379      -0.14755958      -1.55594119       8.49807906
F        5.44000000       3.48000000      19.05000000      -3.35854600       4.59370800       0.02860600      -0.41434997       0.78928886       1.39722620       5.00150142
O        1.15000000       3.26000000       1.39000000      -0.48214200      -4.13920700      -1.30118200       0.65951200      -1.16286467      -0.76386720       3.23275342
O        4.63000000       2.27000000       1.61000000      -0.80260400      -1.46530500      -0.44872000      -1.29945646      -0.08138981       0.04999010       1.55267362
O        1.14000000       0.68000000       2.07000000       0.75003600      -1.06224400      -0.04892100       0.30269037      -1.06833622       0.74633426       0.91246159
O        6.49000000       0.82000000       0.50000000      -2.93210500      -0.60714200      -2.18178400      -2.51077681      -0.53011927      -0.76290008       1.48212061
O        9.12000000       1.59000000       0.68000000       2.43587400      -0.50201500      -2.49643200       2.90276452      -0.04227849      -0.66188899       1.94804838
O        6.01000000       4.43000000       2.37000000       1.09739100      -0.84840000      -0.35297000       0.31623134      -0.43762572      -0.46489583       0.88964786
O        6.75000000       2.00000000       3.12000000       0.26124900      -0.13511200       1.56075800       0.45614979       0.18174354       1.68917968       0.39354273
O        5.11000000       9.50000000       2.24000000      -2.10513300       0.65987000      -0.42498000      -1.95209861       0.10289386      -0.07646323       0.67461536
O        3.11000000       5.07000000       0.61000000       2.24380400       0.24791100      -3.40488200       0.12476115       0.36738685      -0.99394605       3.21204441
O        0.81000000       5.93000000       1.29000000      -3.33760500       1.78665300      -1.25177800      -0.44973946       0.65045453      -0.62982803       3.16504915
O        2.52000000       5.00000000       3.05000000      -0.08356900      -0.06543700       1.81321800      -0.24673665       0.41167736      -1.26420309       3.11845833
O        5.07000000       6.84000000       2.38000000       1.77256200       2.61006900      -1.33962800       0.72235320       1.43157483      -1.63931521       1.60673565
O        6.98000000       8.25000000       1.12000000       3.73561300       0.61774000      -2.56786600       2.94598138       0.21985515      -1.38913812       1.47350936
O        7.86000000       6.38000000       2.36000000      -1.41641400      -0.81026500       0.95193100      -1.17631097      -1.44192351       1.22212344       0.72776774
O        9.62000000       8.38000000       2.55000000      -1.42754500       1.07460500      -1.15351600      -0.54928775       0.53987701      -0.95268086       1.04766625
O        4.26000000       3.17000000       4.00000000       0.74799300      -0.43810400       0.74739900       0.14520898       0.18412539      -0.01682492       1.15522992
O        1.58000000       3.26000000       4.59000000      -0.87998700      -0.78456900       1.91103400      -0.72722487      -0.23954858       0.85605336       1.19723334
O        2.88000000       1.72000000       6.96000000      -3.47743100      -0.69433300      -0.54382100      -3.44323903      -0.60303388      -1.33334882       0.79552423
O        9.06000000       0.52000000       3.86000000      -0.24859300      -0.72356200       0.18879400      -0.22767586      -0.47695096       0.07198032       0.27367859
O        9.02000000       2.97000000       4.17000000      -0.35708000       1.15578700       0.81502600       0.22908689       1.53328470       0.36540879       0.82960941
O        7.41000000       1.41000000       5.67000000       0.14304200       1.21580700      -1.62064900       0.14099418       1.15400667      -1.76843730       0.16020255
O        0.20000000       2.49000000       6.54000000      -0.27744500      -1.31858500       2.50143800      -0.00491303      -1.23595770       1.89433169       0.67058110
O        7.47000000       9.32000000       7.14000000       0.10239600       1.28143800       1.48072500       0.16437848       1.18002921       0.85564046       0.63628315
O        1.63000000       9.37000000       4.22000000      -0.83565600       0.04289500       0.21172800      -0.42215581      -0.43023446      -0.03604056       0.67544293
O        3.77000000       7.54000000       4.75000000       1.24839300      -0.05641400      -0.21152300       1.13322047      -0.51012743      -0.96617090       0.88803944
O        3.38000000       5.11000000       5.59000000      -0.90400300      -1.32137200       0.03400600      -1.04836271      -1.34305282      -0.92049083       0.96559514
O        1.34000000       7.03000000       5.52000000       1.22144300       0.84754400       0.83981200       1.27775198       0.52686920      -0.11165836       1.00563356
O        2.86000000       8.80000000       6.63000000       0.21850500       1.97874800       0.33803600       0.29654205       1.84348917      -0.17090225       0.53235597
O        5.08000000       6.02000000       6.87000000       1.56098100       0.57162100      -1.08078200       1.71385608       0.42782758      -1.68423332       0.63890597
O        6.11000000       5.83000000       4.50000000       0.22574500      -0.47949300      -0.16485700      -0.05778317      -0.50143903      -0.56900713       0.49417323
O        9.72000000       4.96000000       5.58000000      -0.71220100       1.66737400       1.46582000      -0.38266285       1.79541204       0.58399753       0.95005263
O        9.03000000       7.68000000       5.67000000      -1.40020300      -0.68447900       1.54218800      -1.26286638      -0.85792647       0.92165093       0.65879559
O        6.14000000       8.05000000       5.59000000      -0.24854400      -0.82598700       0.18894800      -0.13721884      -0.94657127      -0.24569532       0.46459517
O        5.42000000       1.18000000       7.51000000      -0.13590200      -0.27169000      -0.53024900      -0.12833125      -0.27505523      -1.17911058       0.64891447
O        4.55000000       3.79000000       7.55000000      -0.44587800      -1.58696200       0.98752100      -0.44055251      -1.64873596       0.24255963       0.74753717
O        2.03000000       3.99000000       7.63000000      -0.97989300       0.68775000       1.44729700      -0.85722649       0.70571724       0.61910813       0.83741668
O        3.80000000       2.05000000       9.32000000       0.15664000       0.54094500       2.49631200       0.28239942       0.56668055       1.77721585       0.73046356
O        5.01000000       0.30000000      10.59000000      -0.00601700      -2.90448100       1.55140200       0.12781723      -2.97692099       0.68144784       0.88316442
O        1.61000000       3.41000000      10.36000000       0.24256600      -1.78036000       0.13358300       0.33674282      -1.76261326      -0.66345953       0.80278329
O        0.96000000       1.63000000       8.87000000      -0.48535900       0.13635200       0.94155400      -0.47753938       0.09120228       0.27261400       0.67050754
O        7.77000000       1.59000000       8.39000000      -0.34917300      -0.13468100      -1.12176800      -0.26299229      -0.08537313      -1.73732299       0.62351129
O        9.09000000       3.30000000       9.64000000      -0.50618100       0.42135900       1.90918000      -0.34123485       0.45153079       1.14239091       0.78490960
O        6.28000000       2.64000000      10.16000000       0.69862500       0.75716900       0.51821700       0.74631856       0.69202474      -0.21035869       0.73303546
O        3.09000000       6.36000000       7.94000000      -1.65101500      -1.63975000       0.39501600      -1.60663047      -1.54570644      -0.32243065       0.72494405
O        4.01000000       8.40000000       8.94000000       3.43679200       2.02808800       3.12700100       3.58078872       1.94525005       2.40633034       0.73956973
O        1.53000000       8.26000000       8.75000000      -2.92991800      -1.49807500       1.94015700      -2.93028644      -1.52457566       1.21552164       0.72511987
O        3.21000000       5.55000000      10.63000000       1.79131300      -0.46387600       0.79706500       1.80081692      -0.53403798      -0.05822269       0.85821330
O        5.40000000       6.07000000       9.17000000      -0.96159100       0.17550600       5.79816200      -0.92328726       0.20635344       4.99120566       0.80845363
O        7.11000000       4.32000000       8.14000000       0.68177300      -1.73610600       1.93524400       0.75490805      -1.74200546       1.14289886       0.79573510
O        0.10000000       6.16000000       7.79000000       0.20121700       1.11723600       4.24732600       0.28359937       1.09752809       3.53363346       0.71870182
O        7.57000000       6.63000000       7.42000000      -1.31327500      -0.24949100       1.67170000      -1.21610979      -0.41522593       0.96898419       0.72850439
O        0.88000000       5.96000000      10.39000000      -0.70283200       0.06466100       0.27820700      -0.66552153       0.00227059      -0.48059105       0.76227233
O        9.19000000       7.81000000       9.92000000       0.66607500       0.10459800      -0.60310700       0.62613571       0.16143231      -1.28785128       0.68825869
O        6.63000000       8.38000000       9.84000000      -1.81288800       0.04542700       0.45721900      -1.55241297      -0.01243933      -0.30246949       0.80518467
O        4.59000000       2.49000000      12.14000000       0.26888700       2.08029500       0.68901700       0.35221560       1.99234223      -0.07226444       0.77086236
O        2.61000000       1.95000000      14.17000000      -0.73490700      -0.54897300       0.38454800      -0.78271951      -0.77688968      -0.40397559       0.82219311
O        0.14000000       1.54000000      11.61000000      -0.60224200       0.19118700      -0.53784200      -0.56493951       0.09840313      -1.14148843       0.61187363
O        8.10000000       9.71000000      11.48000000      -0.12769700       0.32297700       0.05904200      -0.02739435       0.36938197      -0.62955734       0.69741171
O        7.89000000       2.18000000      12.84000000       0.98581800      -4.33716500      -0.35381600       1.05986260      -4.26967407      -1.01046126       0.66424440
O        6.46000000       4.17000000      13.88000000      -1.15286700      -1.43686400      -0.20289100      -0.71061388      -1.46961288      -0.94926176       0.86817603
O        9.23000000       9.84000000      13.73000000      -0.18092600       1.70201600      -0.56786900      -0.10747431       1.56336900      -0.97474933       0.43608456
O        4.60000000       7.66000000      11.42000000       0.29760400      -1.31654200      -0.36364000       0.38670339      -1.29221350      -1.19529733       0.83677027
O        3.76000000       4.40000000      13.94000000       2.96452200      -0.40313000      -0.08987300       2.92516204      -0.58142618      -1.12816481       1.05422418
O        5.51000000       5.19000000      11.80000000      -0.67189500      -1.32967400       1.64853100      -0.51938262      -1.41665811       0.85949272       0.80833636
O        1.63000000       4.39000000      12.70000000      -0.07227900       0.21861700      -2.14500200      -0.11474949       0.10693682      -2.88548590       0.75006174
O        9.04000000       3.88000000      14.47000000       0.43144400       0.83968800       1.95342500       0.54864717       0.69886729       1.25941832       0.71778292
O        2.67000000       9.39000000      15.43000000      -1.41683400       1.61698000      -1.58742700      -1.60103543       1.81916795      -2.19952656       0.67042972
O        7.91000000       0.26000000      16.00000000      -0.24812100       1.62412300      -1.90828300      -0.01429223       1.62337049      -2.05234019       0.27464328
O        6.75000000       2.11000000      17.53000000      -3.10312800       2.22685500       0.45060300      -1.95813070       1.50981211       0.45874511       1.35101281
O        8.50000000       0.18000000      18.62000000       2.31541700       3.67703900      -0.04364800       2.39857604       3.56478563       0.66695855       0.72420848
O        1.40000000       3.93000000      15.24000000       5.01501600       0.70607200      -1.14338600       4.51982981       0.33238781      -2.02439805       1.07751170
O        1.89000000       6.99000000      16.20000000      -1.58517900      -3.01482900       2.14776500      -2.36398178      -2.49260676       0.91577235       1.54824279
O        2.73000000       5.48000000      18.84000000       2.49591800       0.33792300      -1.26190400      -3.20322327       0.11584665      -0.10929293       5.81876631
O        2.91000000       8.77000000      17.69000000      -0.90224400      -1.01101800       1.71128100      -1.49977708       0.12566268       1.37138838       1.32838840
O        1.53000000       7.70000000      19.87000000       1.03883900       0.03412100      -3.82513300      -0.12351230       1.12092878      -1.86998437       2.52087641
O        1.10000000       0.41000000      19.14000000      -1.75293400       1.70096900      -0.41015300      -2.24452946       1.86168245       0.59835659       1.13339601
O        9.50000000       8.28000000      15.90000000       1.49116100      -1.44540900      -0.70179400       1.32296689      -1.15454790      -0.99005165       0.44269844
O        9.53000000       5.75000000      16.23000000      -0.01241600       1.22726600       1.22550400      -0.32844747       1.36490069       0.72497779       0.60773817
O        8.93000000       0.61000000      21.07000000       0.22392300      -0.37007200       0.08074500       0.35914895      -0.38870528       1.69347514       1.61849676
O        8.92000000       9.77000000      34.11000000       0.30458900       0.63952400      -3.42705600       0.37649382       0.46196467      -0.40849628       3.02463227
O        0.33000000       1.85000000      31.95000000      -0.40088400      -0.58027600      -3.13695100      -0.38118301      -0.71179689      -0.32515592       2.81493827
Si       4.99000000       0.77000000       1.15000000       5.57651800       0.23220800      -1.36100300       4.49970067       0.22257546      -0.47341238       1.39550904
Si       0.77000000       1.70000000       0.84000000      -5.21707800       1.78457200       1.79278100      -4.05598001       1.99638277       1.50935533       1.21381319
Si       5.44000000       2.99000000       2.84000000       0.31618700      -0.09786100       0.65660800       0.05173507      -0.00444937       0.60511759       0.28515227
Si       0.33000000       9.79000000       3.21000000       1.12021900      -1.27858900      -0.71679200       1.21050246      -1.38114201      -0.91623973       0.24175942
Si       1.84000000       4.73000000       1.55000000      -1.04780400      -0.65297100       1.42466500       0.10583483      -0.01817607       1.22899518       1.33121517
Si       5.44000000       8.13000000       1.37000000      -1.98474000       0.19812900       0.68008200      -1.72870103      -0.14215323       1.78079863       1.18022245
Si       8.47000000       7.66000000       1.57000000      -0.14716900       0.63059100       1.71978100       0.81218705       0.41880255       1.68782691       0.98297479
Si       6.32000000       5.92000000       2.89000000       1.07339700      -1.21972200      -0.49217400       0.97253877      -0.93822868      -0.56299423       0.30728876
Si       2.91000000       4.12000000       4.32000000       1.34026300      -0.63635300       1.24634600       1.35201589      -0.42449572       0.59371345       0.68625861
Si       8.04000000       1.74000000       4.18000000      -2.63156200      -1.12528500      -0.02228300      -2.42336357      -1.09572410      -0.44682838       0.47377127
Si       0.07000000       3.45000000       5.30000000       1.64317100       0.38906900      -2.19241100       1.82170829       0.36612280      -2.84365003       0.67565847
Si       6.96000000       0.89000000       7.09000000       1.34913500      -1.26723000       2.82443000       1.44677301      -1.13747446       2.33291212       0.51764806
Si       2.41000000       8.28000000       5.19000000      -2.40185900      -1.51219000      -0.21955700      -2.45756487      -1.48457121      -0.80792207       0.59164127
Si       5.08000000       6.76000000       5.35000000       0.52954600       1.42910200       1.37861000       0.30574753       1.17127481       0.82089493       0.65391645
Si       3.35000000       4.88000000       7.26000000       0.75681500       1.52713200      -0.85089700       0.85252163       1.59793334      -1.53022213       0.68967762
Si       0.03000000       6.43000000       6.25000000      -0.56734800       1.05549300      -3.02985000      -0.26466235       0.87688983      -3.52364294       0.60609336
Si       7.56000000       7.88000000       6.41000000      -0.32199200       2.13364000      -0.55521300      -0.20266447       2.04839007      -0.94054823       0.41229825
Si       1.48000000       2.47000000       7.57000000       0.15769100      -1.49150600      -0.44204600       0.26435063      -1.51832325      -0.85484192       0.42719541
Si       4.15000000       2.15000000       7.73000000       3.09792500       1.39017600       2.56139300       3.08938073       1.50531187       2.22095959       0.35947765
Si       4.85000000       1.88000000      10.61000000       1.31508300       1.09969500      -0.88684800       1.32552811       1.11165855      -1.15669320       0.27031215
Si       7.57000000       3.03000000       9.14000000      -2.47091800      -0.41959900      -0.41212700      -2.36523208      -0.43534247      -0.71244094       0.31875669
Si       0.36000000       2.45000000      10.19000000      -0.52611800      -2.41573700       0.27156100      -0.40056000      -2.39268393      -0.12613649       0.41768355
Si       2.90000000       7.96000000       7.96000000      -1.43403400      -1.21349700       1.45366500      -1.40445757      -1.27235113       0.91029356       0.54734916
Si       5.02000000       8.66000000      10.21000000       0.42232800       3.05847800      -0.73724100       0.29533801       2.94677314      -0.86752415       0.21349035
Si       1.89000000       4.77000000      10.99000000      -2.19721400       4.14105000       3.94695000      -2.04048656       4.15114515       3.63161812       0.35227773
Si       4.72000000       6.09000000      10.76000000       0.05465000       0.72716500      -0.79825000       0.10667514       0.85432270      -1.11972390       0.34960143
Si       6.31000000       5.71000000       7.94000000       0.80741700      -0.51722800      -0.51506600       0.80777575      -0.54602209      -0.89851064       0.38452441
Si       0.41000000       7.05000000       9.21000000       1.82152900      -0.73130600       0.27091600       1.98632748      -0.81269449      -0.13553212       0.44607477
Si       7.93000000       8.25000000      10.75000000      -0.01881000       1.60760100       0.97332500       0.01495479       1.61716389       0.57134673       0.40350717
Si       5.07000000       4.02000000      12.92000000       0.29744100       0.18456700       1.34834100       0.24899287       0.13722495       0.86442706       0.48863196
Si       2.39000000       3.55000000      13.88000000      -1.65027400      -0.58008100       2.28457600      -1.49617770      -0.46226463       2.00116343       0.34343711
Si       3.13000000       0.26000000      14.17000000       0.28844400       5.15165000       1.59408500       0.38955735       4.98336008       1.51484788       0.21171662
Si       8.85000000       0.80000000      12.39000000      -0.34372700       1.30190100       1.44850800      -0.22533666       1.29546434       1.04021461       0.42516020
Si       7.96000000       3.68000000      13.31000000      -1.20267500       2.10868000       1.04416000      -1.17980423       1.86479970       0.90153794       0.28344616
Si       8.43000000       9.16000000      14.97000000       1.36914900      -2.27059600       0.94740300       1.55376846      -2.16049443       0.79672628       0.26250748
Si       7.42000000       0.72000000      17.44000000       1.91539600      -7.66766900       1.49000300       1.68596943      -7.26950906       2.27481127       0.90944593
Si       3.09000000       7.89000000      15.81000000       3.94920000       1.92898000       0.97626900       3.56099257       2.26615485       1.06744863       0.52221223
Si       2.21000000       9.32000000      19.00000000       3.78403000      -3.79935100       0.29339200       3.43399633      -3.75093881       1.18758931       0.96148642
Si       1.31000000       6.13000000      19.63000000       1.09206600       0.77125800      -2.27380400      -0.42956232       1.77338687      -0.86750272       2.30158604
Si       0.42000000       6.88000000      15.52000000      -1.41462600       5.25147700       1.71705200      -1.16303308       4.58715642       2.03976662       0.78023429
Si       0.05000000       4.35000000      15.81000000      -3.43496600      -6.20609800      -1.86577300      -3.30105758      -5.72318549      -1.64283442       0.54848661
Si       5.20000000       2.74000000      17.72000000      -1.08945200      -3.42751200      -2.66924200      -1.09048226      -4.54035549      -2.50830265       1.12442126
Si       9.67000000       0.97000000      19.65000000      -4.15367200      -1.61432000      -3.38061600      -3.79181552      -1.73261771      -1.53171074       1.88769307
Si       8.05000000       0.82000000      22.45000000      -0.76250600       1.17003000      -3.74578800      -0.44235957       1.04428988      -1.87661669       1.90055405
