8
Lattice="5.4709021605 0.0 0.0 0.0 5.4709021605 0.0 0.0 0.0 5.4709021605" Properties=species:S:1:pos:R:3:momenta:R:3 time_fs=0.0 temperature_K=300.0000000000001 pbc="T T T"
Si       0.00000000       0.00000000       0.00000000       0.02002556      -0.15248147       0.86102025
Si       1.36772554       1.36772554       1.36772554      -0.17891388       0.97795914       1.04442787
Si       0.00000000       2.73545108       2.73545108      -0.21861087       1.67179471       0.86712523
Si       1.36772554       4.10317662       4.10317662      -1.15372342      -0.03832433      -0.88234083
Si       2.73545108       0.00000000       2.73545108       0.67374100      -0.03073151      -0.78440535
Si       4.10317662       1.36772554       4.10317662       0.75030077       0.31245433      -0.20338906
Si       2.73545108       2.73545108       0.00000000       1.20699627      -1.57042424      -0.13984422
Si       4.10317662       4.10317662       1.36772554      -1.09981542      -1.17024663      -0.76259388
8
Lattice="5.4709021605 0.0 0.0 0.0 5.4709021605 0.0 0.0 0.0 5.4709021605" Properties=species:S:1:pos:R:3:momenta:R:3 time_fs=2.5 temperature_K=293.29946910856256 pbc="T T T"
Si       0.00016890      -0.00132626       0.00751397       0.01782271      -0.15000691       0.85581386
Si       1.36616811       1.37625788       1.37684569      -0.17642547       0.97130395       1.04011645
Si      -0.00193003       2.75002742       2.74299360      -0.22533292       1.65696080       0.85298799
Si       1.35771121       4.10285590       4.09551528      -1.12749867      -0.03303570      -0.86320801
Si       2.74131354      -0.00026755       2.72861312       0.66355776      -0.03031310      -0.77703791
Si       4.10974396       1.37042713       4.10139942       0.75279041       0.30158816      -0.20299389
Si       2.74593295       2.72175761      -0.00124898       1.18142208      -1.55699500      -0.14908894
Si       4.09359784       4.09297436       1.36107437      -1.08633589      -1.15950220      -0.75658954
8
Lattice="5.4709021605 0.0 0.0 0.0 5.4709021605 0.0 0.0 0.0 5.4709021605" Properties=species:S:1:pos:R:3:momenta:R:3 time_fs=5.0 temperature_K=274.0400122239349 pbc="T T T"
Si       0.00030014      -0.00261043       0.01493685       0.01152062      -0.14295645       0.84020826
Si       1.36465426       1.38467458       1.38588986      -0.16897358       0.95158242       1.02699062
Si      -0.00398124       2.76434242       2.75028662      -0.24657218       1.61190301       0.80993964
Si       1.34815238       4.10263436       4.08818683      -1.04991230      -0.01511570      -0.80641005
Si       2.74699925      -0.00052760       2.72190308       0.63348580      -0.02900249      -0.75523931
Si       4.11635521       1.37293946       4.09962788       0.76032830       0.26927556      -0.20220811
Si       2.75597211       2.70829370      -0.00265353       1.10623381      -1.51838842      -0.17488478
Si       4.08425437       4.08296000       1.35452890      -1.04611047      -1.12729793      -0.73839628
8
Lattice="5.4709021605 0.0 0.0 0.0 5.4709021605 0.0 0.0 0.0 5.4709021605" Properties=species:S:1:pos:R:3:momenta:R:3 time_fs=7.5 temperature_K=244.66345477469952 pbc="T T T"
Si       0.00036139      -0.00381511       0.02217895       0.00202884      -0.13193891       0.81457373
Si       1.36322588       1.39286352       1.39477956      -0.15700695       0.91932158       1.00472522
Si      -0.00628462       2.77813053       2.75707645      -0.28300425       1.53653467       0.73803419
Si       1.33948636       4.10263352       4.08151377      -0.92399643       0.01774179      -0.71373226
Si       2.75234001      -0.00077204       2.71544463       0.58501368      -0.02673289      -0.71961502
Si       4.12305288       1.37507873       4.09786259       0.77238118       0.21649762      -0.20167847
Si       2.76514941       2.69526779      -0.00434470       0.98509889      -1.45729935      -0.21405673
Si       4.07537518       4.07331954       1.34819523      -0.98051496      -1.07412451      -0.70825065
8
Lattice="5.4709021605 0.0 0.0 0.0 5.4709021605 0.0 0.0 0.0 5.4709021605" Properties=species:S:1:pos:R:3:momenta:R:3 time_fs=10.0 temperature_K=208.90438578518948 pbc="T T T"
Si       0.00033059      -0.00490829       0.02915581      -0.00924534      -0.11755739       0.77971685
Si       1.36191861       1.40071798       1.40343342      -0.14148238       0.87520538       0.97298911
Si      -0.00897044       2.79113084       2.76311672      -0.33372420       1.43205072       0.63895470
Si       1.33211563       4.10298883       4.07579727      -0.75470427       0.06632735      -0.58830897
Si       2.75718481      -0.00099227       2.70935532       0.52054702      -0.02345668      -0.67096384
Si       4.12987099       1.37667288       4.09609869       0.78755148       0.14495976      -0.20197817
Si       2.77308519       2.68286460      -0.00642501       0.82335750      -1.37642484      -0.26329868
Si       4.06717110       4.06423191       1.34217425      -0.89229981      -1.00110430      -0.66711099
8
Lattice="5.4709021605 0.0 0.0 0.0 5.4709021605 0.0 0.0 0.0 5.4709021605" Properties=species:S:1:pos:R:3:momenta:R:3 time_fs=12.5 temperature_K=171.2607835302841 pbc="T T T"
Si       0.00019960      -0.00586299       0.03579163      -0.02055410      -0.10035117       0.73680256
Si       1.36075796       1.40813763       1.41176734      -0.12373462       0.82001300       0.93149574
Si      -0.01215305       2.80309944       2.76818383      -0.39596330       1.30118362       0.51625075
Si       1.32639070       4.10383453       4.07130444      -0.54896801       0.12952832      -0.43482670
Si       2.76140699      -0.00117934       2.70374487       0.44321494      -0.01914355      -0.61028023
Si       4.13682774       1.37756786       4.09432719       0.80362472       0.05706172      -0.20345195
Si       2.77945315       2.67124588      -0.00896815       0.62782581      -1.27830317      -0.31934584
Si       4.05982340       4.05586348       1.33655533      -0.78544544      -0.90998877      -0.61664432
8
Lattice="5.4709021605 0.0 0.0 0.0 5.4709021605 0.0 0.0 0.0 5.4709021605" Properties=species:S:1:pos:R:3:momenta:R:3 time_fs=15.0 temperature_K=136.28986914878126 pbc="T T T"
Si      -0.00002358      -0.00665655       0.04202201      -0.02997911      -0.08077099       0.68725022
Si       1.35975668       1.41502924       1.41969504      -0.10532125       0.75457869       0.88004943
Si      -0.01591408       2.81382337       2.77209361      -0.46501941       1.14826707       0.37537759
Si       1.32259297       4.10528627       4.06825429      -0.31563733       0.20421335      -0.25959089
Si       2.76490962      -0.00132411       2.69871343       0.35664463      -0.01378274      -0.53875729
Si       4.14391875       1.37763343       4.09253750       0.81768489      -0.04415371      -0.20610663
Si       2.78399213       2.66055211      -0.01201985       0.40654874      -1.16524993      -0.37908411
Si       4.05347399       4.04836272       1.33141046      -0.66492116      -0.80310174      -0.55913832
8
Lattice="5.4709021605 0.0 0.0 0.0 5.4709021605 0.0 0.0 0.0 5.4709021605" Properties=species:S:1:pos:R:3:momenta:R:3 time_fs=17.5 temperature_K=107.84168348709188 pbc="T T T"
Si      -0.00031398      -0.00726987       0.04779567      -0.03559226      -0.05918815       0.63262093
Si       1.35891346       1.42130707       1.42712910      -0.08787130       0.67978192       0.81858678
Si      -0.02028635       2.82313390       2.77471716      -0.53449795       0.97901753       0.22344663
Si       1.32091902       4.10742420       4.06680418      -0.06518625       0.28546506      -0.07033769
Si       2.76762884      -0.00141747       2.69434986       0.26473164      -0.00739065      -0.45778172
Si       4.15111175       1.37676850       4.09072059       0.82629975      -0.15508307      -0.20957830
Si       2.78651562       2.65090450      -0.01559954       0.16848633      -1.03937351      -0.43961383
Si       4.04821812       4.04185566       1.32678946      -0.53636996      -0.68322912      -0.49734279
8
Lattice="5.4709021605 0.0 0.0 0.0 5.4709021605 0.0 0.0 0.0 5.4709021605" Properties=species:S:1:pos:R:3:momenta:R:3 time_fs=20.0 temperature_K=88.40634755880599 pbc="T T T"
Si      -0.00063027      -0.00768691       0.05307520      -0.03559424      -0.03593033       0.57450943
Si       1.35821292       1.42689332       1.43398227      -0.07295597       0.59656661       0.74721399
Si      -0.02524130       2.83091658       2.77599311      -0.59689743       0.80001979       0.06866552
Si       1.32146872       4.11027962       4.06703921       0.19086272       0.36716572       0.12425055
Si       2.76953522      -0.00145062       2.69073009       0.17142549      -0.00002371      -0.36891638
Si       4.15834303       1.37490553       4.08887210       0.82577102      -0.27168080      -0.21318941
Si       2.78691811       2.64240648      -0.01970233      -0.07686593      -0.90265001      -0.49827905
Si       4.04410005       4.03644248       1.32271683      -0.40574566      -0.55346728      -0.43425465
8
Lattice="5.4709021605 0.0 0.0 0.0 5.4709021605 0.0 0.0 0.0 5.4709021605" Properties=species:S:1:pos:R:3:momenta:R:3 time_fs=22.5 temperature_K=78.75751213877847 pbc="T T T"
Si      -0.00091634      -0.00789445       0.05783693      -0.02842699      -0.01133297       0.51444922
Si       1.35762658       1.43171886       1.44016907      -0.06198731       0.50598015       0.66623907
Si      -0.03068299       2.83711582       2.77593384      -0.64446899       0.61800575      -0.08045817
Si       1.32423940       4.11382806       4.06896693       0.44074610       0.44283861       0.31526088
Si       2.77063344      -0.00141546       2.68791575       0.08053996       0.00820647      -0.27387194
Si       4.16551649       1.37201375       4.08699447       0.81243378      -0.38961252      -0.21608173
Si       2.78517794       2.63514436      -0.02430118      -0.31990513      -0.75703457      -0.55266903
Si       4.04111196       4.03219555       1.31919067      -0.27893142      -0.41705093      -0.37286831
8
Lattice="5.4709021605 0.0 0.0 0.0 5.4709021605 0.0 0.0 0.0 5.4709021605" Properties=species:S:1:pos:R:3:momenta:R:3 time_fs=25.0 temperature_K=77.99664689920994 pbc="T T T"
Si      -0.00110385      -0.00788244       0.06207007      -0.01286465       0.01420759       0.45383467
Si       1.35711456       1.43572432       1.44560770      -0.05614000       0.40921738       0.57619738
Si      -0.03645009       2.84173275       2.77462427      -0.67018321       0.43910012      -0.21599210
Si       1.32912774       4.11799015       4.07251880       0.67335325       0.50655986       0.49434111
Si       2.77096031      -0.00130519       2.68595296      -0.00441079       0.01711946      -0.17447413
Si       4.17250525       1.36810091       4.08509784       0.78297889      -0.50443377      -0.21738826
Si       2.78135627       2.62918703      -0.02934900      -0.55136403      -0.60458398      -0.60059952
Si       4.03919628       4.02915895       1.31618385      -0.16136946      -0.27718666      -0.31591916
8
Lattice="5.4709021605 0.0 0.0 0.0 5.4709021605 0.0 0.0 0.0 5.4709021605" Properties=species:S:1:pos:R:3:momenta:R:3 time_fs=27.5 temperature_K=83.966918226261 pbc="T T T"
Si      -0.00111548      -0.00764474       0.06577515       0.01190967       0.04019227       0.39385923
Si       1.35662802       1.43886156       1.45022208      -0.05628619       0.30765308       0.47786870
Si      -0.04232615       2.84481719       2.77221335      -0.66859557       0.26822646      -0.33134563
Si       1.33593903       4.12263999       4.07755824       0.87902008       0.55372979       0.65438070
Si       2.77058157      -0.00111489       2.68487149      -0.08035334       0.02645837      -0.07263510
Si       4.17915620       1.36321344       4.08319937       0.73476345      -0.61177784      -0.21639529
Si       2.77559234       2.62458454      -0.03478048      -0.76272842      -0.44756519      -0.64008405
Si       4.03825096       4.02734937       1.31364729      -0.05772968      -0.13691693      -0.26564856
8
Lattice="5.4709021605 0.0 0.0 0.0 5.4709021605 0.0 0.0 0.0 5.4709021605" Properties=species:S:1:pos:R:3:momenta:R:3 time_fs=30.0 temperature_K=93.88144566237432 pbc="T T T"
Si      -0.00086880      -0.00718007       0.06896212       0.04623583       0.06599733       0.33546646
Si       1.35611202       1.44109530       1.45394407      -0.06293511       0.20285020       0.37228503
Si      -0.04805631       2.84645556       2.76889982      -0.63643721       0.10880982      -0.42178145
Si       1.34440245       4.12761911       4.08389355       1.05006870       0.58154732       0.78993613
Si       2.76958744      -0.00084223       2.68468406      -0.14477700       0.03589101       0.02966520
Si       4.18529698       1.35743495       4.08132137       0.66607339      -0.70753426      -0.21264956
Si       2.76809521       2.62136594      -0.04051370      -0.94658795      -0.28852983      -0.66930642
Si       4.03813749       4.02675792       1.31151520       0.02835936       0.00096841      -0.22361539
8
Lattice="5.4709021605 0.0 0.0 0.0 5.4709021605 0.0 0.0 0.0 5.4709021605" Properties=species:S:1:pos:R:3:momenta:R:3 time_fs=32.5 temperature_K=104.96213428798319 pbc="T T T"
Si      -0.00028070      -0.00649319       0.07164790       0.08991547       0.09087653       0.27931070
Si       1.35550896       1.44240466       1.45671565      -0.07617402       0.09653822       0.26072849
Si      -0.05336762       2.84675766       2.76491492      -0.57285037      -0.03719336      -0.48461380
Si       1.35418964       4.13275297       4.09129327       1.18102692       0.58913456       0.89734612
Si       2.76808726      -0.00048809       2.68538585      -0.19583808       0.04502051       0.13038783
Si       4.19074502       1.35088332       4.07948886       0.57630880      -0.78800132      -0.20598414
Si       2.75913299       2.61953655      -0.04645155      -1.09688913      -0.13034297      -0.68660338
Si       4.03869093       4.02735260       1.30971159       0.09450041       0.13396783      -0.19057180
8
Lattice="5.4709021605 0.0 0.0 0.0 5.4709021605 0.0 0.0 0.0 5.4709021605" Properties=species:S:1:pos:R:3:momenta:R:3 time_fs=35.0 temperature_K=114.92482608441186 pbc="T T T"
Si       0.00072763      -0.00559582       0.07385377       0.14216133       0.11398606       0.22572545
Si       1.35476253       1.44278445       1.45849106      -0.09561407      -0.00943597       0.14472031
Si      -0.05798993       2.84584492       2.76050459      -0.47929186      -0.16900938      -0.51912621
Si       1.36493389       4.13786725       4.09950125       1.26855964       0.57736250       0.97457677
Si       2.76620326      -0.00005702       2.68695394      -0.23244389       0.05340344       0.22743923
Si       4.19531774       1.34370656       4.07772724       0.46607611      -0.85000278      -0.19646097
Si       2.74902024       2.61907539      -0.05248302      -1.20907589       0.02383776      -0.69046179
Si       4.03973113       4.02908076       1.30815764       0.13962862       0.25985837      -0.16641279
8
Lattice="5.4709021605 0.0 0.0 0.0 5.4709021605 0.0 0.0 0.0 5.4709021605" Properties=species:S:1:pos:R:3:momenta:R:3 time_fs=37.5 temperature_K=122.23596309023942 pbc="T T T"
Si       0.00222543      -0.00450733       0.07560246       0.20156372       0.13442683       0.17470112
Si       1.35382204       1.44224590       1.45923883      -0.12034937      -0.11317589       0.02600189
Si      -0.06167481       2.84384186       2.75591337      -0.35919885      -0.28663404      -0.52629724
Si       1.37624776       4.14280161       4.10824954       1.31120967       0.54848652       1.02089693
Si       2.76406374       0.00044240       2.68934692      -0.25431009       0.06057245       0.31868011
Si       4.19884317       1.33607788       4.07606078       0.33718606      -0.89096646      -0.18425145
Si       2.73810462       2.61993276      -0.05848456      -1.28012188       0.17063228      -0.67952930
Si       4.04107452       4.03187140       1.30677914       0.16402074       0.37665832      -0.15020205
8
Lattice="5.4709021605 0.0 0.0 0.0 5.4709021605 0.0 0.0 0.0 5.4709021605" Properties=species:S:1:pos:R:3:momenta:R:3 time_fs=40.0 temperature_K=126.15379415621405 pbc="T T T"
Si       0.00426684      -0.00325503       0.07691504       0.26608137       0.15129673       0.12587630
Si       1.35264708       1.44081679       1.45894359      -0.14894012      -0.21281030      -0.09349070
Si      -0.06421092       2.84087114       2.75137115      -0.21753130      -0.39042261      -0.50843294
Si       1.38773813       4.14741992       4.11726813       1.30906775       0.50570625       1.03650349
Si       2.76179583       0.00099753       2.69250453      -0.26198226       0.06606060       0.40194626
Si       4.20117015       1.32819016       4.07451228       0.19256685      -0.90896604      -0.16949089
Si       2.72675378       2.62202887      -0.06432158      -1.30847740       0.30655147      -0.65264093
Si       4.04254560       4.03563711       1.30551336       0.16921511       0.48258388      -0.14027059
8
Lattice="5.4709021605 0.0 0.0 0.0 5.4709021605 0.0 0.0 0.0 5.4709021605" Properties=species:S:1:pos:R:3:momenta:R:3 time_fs=42.5 temperature_K=126.61975767129483 pbc="T T T"
Si       0.00688546      -0.00187392       0.07780794       0.33306306       0.16374488       0.07854885
Si       1.35121210       1.43854087       1.45760762      -0.17942900      -0.30656312      -0.21165741
Si      -0.06543522       2.83705194       2.74708320      -0.06028541      -0.48077569      -0.46878277
Si       1.39901830       4.15161657       4.12629158       1.26346645       0.45272869       1.02219167
Si       2.75951835       0.00159169       2.69634759      -0.25681342       0.06942507       0.47508587
Si       4.20217747       1.32025026       4.07310402       0.03611026      -0.90273260      -0.15214437
Si       2.71534278       2.62525347      -0.06985029      -1.29396376       0.42815204      -0.60886296
Si       4.04398724       4.04027560       1.30431482       0.15785181       0.57602072      -0.13437887
8
Lattice="5.4709021605 0.0 0.0 0.0 5.4709021605 0.0 0.0 0.0 5.4709021605" Properties=species:S:1:pos:R:3:momenta:R:3 time_fs=45.0 temperature_K=124.07956461919417 pbc="T T T"
Si       0.01008924      -0.00040604       0.07829006       0.39930414       0.17102170       0.03171353
Si       1.34951074       1.43547681       1.45525218      -0.20939832      -0.39280941      -0.32626936
Si      -0.06523995       2.83250043       2.74322358       0.10596313      -0.55796128      -0.41118487
Si       1.40971779       4.15531914       4.13506316       1.17675257       0.39336623       0.97912736
Si       2.75733498       0.00220454       2.70077838      -0.24089125       0.07026937       0.53601363
Si       4.20178147       1.31247329       4.07185969      -0.12752959      -0.87164386      -0.13191565
Si       2.70424274       2.62946709      -0.07491995      -1.23764997       0.53223459      -0.54755838
Si       4.04526947       4.04567122       1.30315938       0.13344930       0.65552266      -0.12992625
8
Lattice="5.4709021605 0.0 0.0 0.0 5.4709021605 0.0 0.0 0.0 5.4709021605" Properties=species:S:1:pos:R:3:momenta:R:3 time_fs=47.5 temperature_K=119.30100364245084 pbc="T T T"
Si       0.01385598       0.00110062       0.07836045       0.46114092       0.17252141      -0.01586900
Si       1.34755946       1.43169668       1.45191843      -0.23607132      -0.47011260      -0.43500985
Si      -0.06357593       2.82733121       2.73993132       0.27445915      -0.62206868      -0.33976235
Si       1.41949061       4.15848768       4.14333755       1.05215859       0.33117127       0.90874529
Si       2.75532836       0.00281254       2.70568145      -0.21691592       0.06826396       0.58278038
Si       4.19994168       1.30507705       4.07080683      -0.29316783      -0.81570118      -0.10821961
Si       2.69381034       2.63450420      -0.07937590      -1.14174443       0.61608549      -0.46848047
Si       4.04629597       4.05169650       1.30204636       0.10014083       0.71984033      -0.12418439
8
Lattice="5.4709021605 0.0 0.0 0.0 5.4709021605 0.0 0.0 0.0 5.4709021605" Properties=species:S:1:pos:R:3:momenta:R:3 time_fs=50.0 temperature_K=113.22870146203037 pbc="T T T"
Si       0.01812995       0.00259354       0.07800662       0.51458536       0.16781666      -0.06557048
Si       1.34540005       1.42728423       1.44766799      -0.25645678      -0.53724428      -0.53552413
Si      -0.06045259       2.82165873       2.73730903       0.43860391      -0.67306197      -0.25867919
Si       1.42802269       4.16111092       4.15088313       0.89376274       0.26909788       0.81276638
Si       2.75355543       0.00338964       2.71092522      -0.18803158       0.06316725       0.61365691
Si       4.19666442       1.29827669       4.06997922      -0.45533875      -0.73550327      -0.08022505
Si       2.68437828       2.64017867      -0.08306343      -1.00952204       0.67775502      -0.37189751
Si       4.04700826       4.05821407       1.30099870       0.06239714       0.76797271      -0.11452694
8
Lattice="5.4709021605 0.0 0.0 0.0 5.4709021605 0.0 0.0 0.0 5.4709021605" Properties=species:S:1:pos:R:3:momenta:R:3 time_fs=52.5 temperature_K=106.88658961918816 pbc="T T T"
Si       0.02281970       0.00401731       0.07720400       0.55550116       0.15668844      -0.11876392
Si       1.34310076       1.42233297       1.44258303      -0.26753177      -0.59319267      -0.62548257
Si      -0.05593537       2.81559792       2.73542342       0.59222889      -0.71089216      -0.17196020
Si       1.43503939       4.16319971       4.15748499       0.70650792       0.20919642       0.69330763
Si       2.75204444       0.00390814       2.71636428      -0.15762003       0.05484852       0.62723072
Si       4.19200405       1.29227962       4.06941864      -0.60855708      -0.63222478      -0.04696285
Si       2.67624606       2.64629170      -0.08583297      -0.84528841       0.71634811      -0.25873934
Si       4.04738745       4.06507912       1.30006109       0.02475932       0.79922812      -0.09862947
8
Lattice="5.4709021605 0.0 0.0 0.0 5.4709021605 0.0 0.0 0.0 5.4709021605" Properties=species:S:1:pos:R:3:momenta:R:3 time_fs=55.0 temperature_K=101.31433608951446 pbc="T T T"
Si       0.02779777       0.00531567       0.07591653       0.57982045       0.13915596      -0.17667095
Si       1.34075565       1.41694433       1.43676568      -0.26645304      -0.63716929      -0.70266252
Si      -0.05014099       2.80926372       2.73430708       0.72981079      -0.73562656      -0.08337193
Si       1.44031320       4.16477797       4.16294900       0.49623663       0.15236999       0.55303660
Si       2.75079383       0.00433978       2.72184265      -0.12906856       0.04331489       0.62251510
Si       4.18606207       1.28728047       4.06917537      -0.74758551      -0.50760588      -0.00748658
Si       2.66967114       2.65264221      -0.08754650      -0.65436175       0.73228160      -0.13074023
Si       4.04745381       4.07214234       1.29929668      -0.00839902       0.81327930      -0.07461949
8
Lattice="5.4709021605 0.0 0.0 0.0 5.4709021605 0.0 0.0 0.0 5.4709021605" Properties=species:S:1:pos:R:3:momenta:R:3 time_fs=57.5 temperature_K=97.51191168879984 pbc="T T T"
Si       0.03290229       0.00643365       0.07409870       0.58379539       0.11551047      -0.24020052
Si       1.33848207       1.41122558       1.43033668      -0.25078370      -0.66862373      -0.76505259
Si      -0.04323103       2.80276953       2.73396102       0.84663230      -0.74756508       0.00364257
Si       1.44367167       4.16587197       4.16710727       0.26969074       0.09824625       0.39531253
Si       2.74977329       0.00465708       2.72719799      -0.10552710       0.02874287       0.59906690
Si       4.17898369       1.28345620       4.06930720      -0.86770140      -0.36395458       0.03893492
Si       2.66486012       2.65903915      -0.08808504      -0.44303511       0.72744388       0.00946343
Si       4.04726438       4.07925331       1.29878267      -0.03307112       0.81019992      -0.04116724
8
Lattice="5.4709021605 0.0 0.0 0.0 5.4709021605 0.0 0.0 0.0 5.4709021605" Properties=species:S:1:pos:R:3:momenta:R:3 time_fs=60.0 temperature_K=96.37045801218076 pbc="T T T"
Si       0.03794102       0.00732019       0.07169900       0.56427286       0.08635309      -0.30979551
Si       1.33641605       1.40528767       1.42343298      -0.21871787      -0.68727336      -0.81097861
Si      -0.03540439       2.79622483       2.73435767       0.93889267      -0.74732607       0.08598736
Si       1.44500494       4.16649924       4.16982462       0.03442596       0.04522529       0.22425604
Si       2.74892685       0.00483496       2.73226691      -0.08967263       0.01151234       0.55710416
Si       4.17095228       1.28096107       4.06987662      -0.96495062      -0.20415764       0.09261770
Si       2.66196069       2.66531447      -0.08735669      -0.21847401       0.70518990       0.15832783
Si       4.04690904       4.08626405       1.29860536      -0.04577637       0.79047645       0.00248104
8
Lattice="5.4709021605 0.0 0.0 0.0 5.4709021605 0.0 0.0 0.0 5.4709021605" Properties=species:S:1:pos:R:3:momenta:R:3 time_fs=62.5 temperature_K=98.58483688642669 pbc="T T T"
Si       0.04269773       0.00793094       0.06866454       0.51897240       0.05263065      -0.38530634
Si       1.33470595       1.39924271       1.41620421      -0.16928404      -0.69314882      -0.83924504
Si      -0.02688892       2.78973207       2.73544392       1.00377287      -0.73589498       0.16091152
Si       1.44427211       4.16665881       4.17100511      -0.20139448      -0.00925749       0.04470480
Si       2.74817797       0.00485266       2.73689117      -0.08350099      -0.00776324       0.49760967
Si       4.16218158       1.27992153       4.07094646      -1.03636933      -0.03168920       0.15328337
Si       2.66105472       2.67133519      -0.08530411       0.01148728       0.67012793       0.31152506
Si       4.04650535       4.09303259       1.29885517      -0.04368371       0.75499515       0.05651696
8
Lattice="5.4709021605 0.0 0.0 0.0 5.4709021605 0.0 0.0 0.0 5.4709021605" Properties=species:S:1:pos:R:3:momenta:R:3 time_fs=65.0 temperature_K=104.56340650889607 pbc="T T T"
Si       0.04694102       0.00823143       0.06494665       0.44674144       0.01565744      -0.46591053
Si       1.33350436       1.39320095       1.40880784      -0.10250533      -0.68664699      -0.84927592
Si      -0.01793276       2.78338345       2.73714404       1.03945916      -0.71463674       0.22599715
Si       1.44150513       4.16632468       4.17059766      -0.42933593      -0.06826219      -0.13795753
Si       2.74743621       0.00469587       2.74092477      -0.08816899      -0.02822134       0.42239950
Si       4.15290630       1.28043109       4.07257397      -1.08014989       0.14939947       0.21992808
Si       2.66215378       2.67701266      -0.08191035       0.23866355       0.62770123       0.46420261
Si       4.04619246       4.09942636       1.29962190      -0.02470401       0.70500913       0.12061665
8
Lattice="5.4709021605 0.0 0.0 0.0 5.4709021605 0.0 0.0 0.0 5.4709021605" Properties=species:S:1:pos:R:3:momenta:R:3 time_fs=67.5 temperature_K=114.3616278035263 pbc="T T T"
Si       0.05043509       0.00820030       0.06050687       0.34775783      -0.02289405      -0.55009513
Si       1.33295893       1.38726743       1.40140321      -0.01949697      -0.66857564      -0.84123373
Si      -0.00879553       2.77725761       2.73936261       1.04512984      -0.68527683       0.27914921
Si       1.43680936       4.16544410       4.16859971      -0.64113265      -0.13473648      -0.31807452
Si       2.74660504       0.00435888       2.74424125      -0.10390606      -0.04876267       0.33413376
Si       4.14337156       1.28254549       4.07480425      -1.09572754       0.33452806       0.29076427
Si       2.66519776       2.68230750      -0.07720189       0.45493110       0.58362527       0.61134955
Si       4.04612427       4.10532519       1.30099048       0.01244444       0.64209233       0.19400659
8
Lattice="5.4709021605 0.0 0.0 0.0 5.4709021605 0.0 0.0 0.0 5.4709021605" Properties=species:S:1:pos:R:3:momenta:R:3 time_fs=70.0 temperature_K=127.66123593803385 pbc="T T T"
Si       0.05295196       0.00783216       0.05532283       0.22365107      -0.06104989      -0.63571266
Si       1.33320269       1.38153823       1.39414474       0.07751355      -0.64016988      -0.81609219
Si       0.00026016       2.77141669       2.74198726       1.02091143      -0.64985821       0.31859347
Si       1.43035994       4.16394129       4.16505820      -0.82917614      -0.21088279      -0.49003764
Si       2.74559006       0.00384648       2.74674094      -0.13000808      -0.06810334       0.23625190
Si       4.13382199       1.28627845       4.07766338      -1.08377269       0.51869062       0.36325196
Si       2.67005745       2.68722932      -0.07124827       0.65268594       0.54328539       0.74820782
Si       4.04646222       4.11062387       1.30303739       0.06819491       0.56808809       0.27553734
8
Lattice="5.4709021605 0.0 0.0 0.0 5.4709021605 0.0 0.0 0.0 5.4709021605" Properties=species:S:1:pos:R:3:momenta:R:3 time_fs=72.5 temperature_K=143.7998568452202 pbc="T T T"
Si       0.05428440       0.00713984       0.04939326       0.07752087      -0.09664942      -0.72011149
Si       1.33434455       1.37609688       1.38717476       0.18525075      -0.60306145      -0.77564211
Si       0.00897670       2.76590379       2.74489155       0.96781084      -0.61068021       0.34288339
Si       1.42239397       4.16172647       4.16006780      -0.98697850      -0.29762840      -0.64858864
Si       2.74430683       0.00317513       2.74835713      -0.16491398      -0.08487347       0.13282477
Si       4.12449125       1.29159863       4.08115240      -1.04608841       0.69662324       0.43422415
Si       2.67654103       2.69183143      -0.06415808       0.82528264       0.51121194       0.87065310
Si       4.04736775       4.11523432       1.30582767       0.14211579       0.48505776       0.36375682
8
Lattice="5.4709021605 0.0 0.0 0.0 5.4709021605 0.0 0.0 0.0 5.4709021605" Properties=species:S:1:pos:R:3:momenta:R:3 time_fs=75.0 temperature_K=161.83913209898316 pbc="T T T"
Si       0.05425838       0.00615527       0.04274162      -0.08615675      -0.12751680      -0.80032956
Si       1.33646065       1.37101117       1.38061655       0.29953730      -0.55918979      -0.72241949
Si       0.01710886       2.76074104       2.74793788       0.88763253      -0.57022475       0.35091370
Si       1.41319900       4.15870857       4.15376674      -1.10954124      -0.39430057      -0.78905039
Si       2.74268781       0.00237316       2.74906070      -0.20635171      -0.09775815       0.02833208
Si       4.11559293       1.29842834       4.08524260      -0.98543131       0.86303233       0.50009620
Si       2.68440407       2.69620167      -0.05607218       0.96739282       0.49072419       0.97547958
Si       4.04899478       4.11908727       1.30941258       0.23291835       0.39523353       0.45697788
8
Lattice="5.4709021605 0.0 0.0 0.0 5.4709021605 0.0 0.0 0.0 5.4709021605" Properties=species:S:1:pos:R:3:momenta:R:3 time_fs=77.5 temperature_K=180.65237196953953 pbc="T T T"
Si       0.05274436       0.00492872       0.03541777      -0.26173025      -0.15167276      -0.87332718
Si       1.33958745       1.36633112       1.37456850       0.41550943      -0.51065808      -0.65955927
Si       0.02443033       2.75592837       2.75098051       0.78289107      -0.53107299       0.34193858
Si       1.40309891       4.15480978       4.14633110      -1.19358222      -0.49855735      -0.90746280
Si       2.74068777       0.00147956       2.74886253      -0.25152835      -0.10566451      -0.07260992
Si       4.10731315       1.30664443       4.08987307      -0.90528921       1.01286608       0.55713528
Si       2.69336221       2.70045098      -0.04715484       1.07524198       0.48378154       1.06054918
Si       4.05148230       4.12213354       1.31382783       0.33848755       0.30097806       0.55333612
8
Lattice="5.4709021605 0.0 0.0 0.0 5.4709021605 0.0 0.0 0.0 5.4709021605" Properties=species:S:1:pos:R:3:momenta:R:3 time_fs=80.0 temperature_K=199.01675979042088 pbc="T T T"
Si       0.04966634       0.00352611       0.02749766      -0.44266117      -0.16755634      -0.93622518
Si       1.34371679       1.36208825       1.36909965       0.52788098      -0.45955316      -0.59059340
Si       0.03073962       2.75144304       2.75386887       0.65672974      -0.49581171       0.31559610
Si       1.39243846       4.14997946       4.13796824      -1.23760623      -0.60656693      -1.00063468
Si       2.73828745       0.00054131       2.74781342      -0.29733363      -0.10788760      -0.16553377
Si       4.09980512       1.31608165       4.09495067      -0.80965585       1.14159907       0.60175603
Si       2.70310533       2.70470158      -0.03758425       1.14671167       0.49102539       1.12479997
Si       4.05494737       4.12434508       1.31909221       0.45593450       0.20475127       0.65083493
8
Lattice="5.4709021605 0.0 0.0 0.0 5.4709021605 0.0 0.0 0.0 5.4709021605" Properties=species:S:1:pos:R:3:momenta:R:3 time_fs=82.5 temperature_K=215.70381018428787 pbc="T T T"
Si       0.04500815       0.00202447       0.01908093      -0.62187101      -0.17421930      -0.98651229
Si       1.34879348       1.35829659       1.36424726       0.63123244      -0.40776051      -0.51922206
Si       0.03586523       2.74724003       2.75645100       0.51285529      -0.46692551       0.27194348
Si       1.38156786       4.14420574       4.12891004      -1.24183631      -0.71338618      -1.06614790
Si       2.73549547      -0.00039064       2.74600163      -0.34052997      -0.10424304      -0.24638057
Si       4.09318565       1.32653847       4.10035261      -0.70283929       1.24549570       0.63080741
Si       2.71331196       2.70907615      -0.02754357       1.18131901       0.51195569       1.16813606
Si       4.05947868       4.12571567       1.32520660       0.58166984       0.10908315       0.74737587
8
Lattice="5.4709021605 0.0 0.0 0.0 5.4709021605 0.0 0.0 0.0 5.4709021605" Properties=species:S:1:pos:R:3:momenta:R:3 time_fs=85.0 temperature_K=229.56726707700696 pbc="T T T"
Si       0.03881652       0.00050592       0.01028702      -0.79211543      -0.17145636      -1.02219191
Si       1.35471542       1.35495515       1.36001629       0.72030201      -0.35681091      -0.44908905
Si       0.03967036       2.74325352       2.75857746       0.35549374      -0.44666867       0.21151207
Si       1.37082844       4.13752301       4.11940612      -1.20804562      -0.81346859      -1.10235767
Si       2.73234873      -0.00126629       2.74354837      -0.37791390      -0.09513717      -0.31170409
Si       4.08753302       1.33778491       4.10593131      -0.58932053       1.32181830       0.64181870
Si       2.72366319       2.71368883      -0.01721321       1.18010122       0.54517381       1.19123778
Si       4.06513079       4.12626143       1.33215312       0.71149851       0.01654958       0.84077417
8
Lattice="5.4709021605 0.0 0.0 0.0 5.4709021605 0.0 0.0 0.0 5.4709021605" Properties=species:S:1:pos:R:3:momenta:R:3 time_fs=87.5 temperature_K=239.62774762308078 pbc="T T T"
Si       0.03120092      -0.00094903       0.00125029      -0.94635597      -0.15984707      -1.04185415
Si       1.36133618       1.35205144       1.35638084       0.79026179      -0.30778844      -0.38358494
Si       0.04205733       2.73939950       2.76010582       0.18936681      -0.43691452       0.13538654
Si       1.36054005       4.13001479       4.10971706      -1.13933743      -0.90122959      -1.10842283
Si       2.72891151      -0.00204177       2.74060180      -0.40644921      -0.08155647      -0.35880609
Si       4.08288594       1.34957191       4.11152130      -0.47365958       1.36895725       0.63318493
Si       2.73385521       2.71863853      -0.00676508       1.14543588       0.58863152       1.19533433
Si       4.07191936       4.12602112       1.33989445       0.84073771      -0.07025268       0.92876222
8
Lattice="5.4709021605 0.0 0.0 0.0 5.4709021605 0.0 0.0 0.0 5.4709021605" Properties=species:S:1:pos:R:3:momenta:R:3 time_fs=90.0 temperature_K=245.14917286996464 pbc="T T T"
Si       0.02233020      -0.00226824      -0.00788517      -1.07810566      -0.14070202      -1.04467675
Si       1.36846992       1.34956554       1.35328703       0.83696812      -0.26131694      -0.32568963
Si       0.04297189       2.73557983       2.76090589       0.01968037      -0.43898865       0.04530382
Si       1.35099038       4.12181157       4.10010700      -1.03991429      -0.97160506      -1.08437650
Si       2.72527348      -0.00268406       2.73733010      -0.42338285      -0.06497175      -0.38580708
Si       4.07924313       1.36164146       4.11694727      -0.36042746       1.38647287       0.60428345
Si       2.74361004       2.72400422       0.00364127       1.08082135       0.63984847       1.18197645
Si       4.07981745       4.12505617       1.34837308       0.96436043      -0.14873692       1.00898626
8
Lattice="5.4709021605 0.0 0.0 0.0 5.4709021605 0.0 0.0 0.0 5.4709021605" Properties=species:S:1:pos:R:3:momenta:R:3 time_fs=92.5 temperature_K=245.69938093541927 pbc="T T T"
Si       0.01242641      -0.00339375      -0.01697047      -1.18173395      -0.11592443      -1.03037497
Si       1.37589836       1.34747387       1.35065716       0.85718165      -0.21762461      -0.27785226
Si       0.04240736       2.73168780       2.76086590      -0.14789257      -0.45350782      -0.05624449
Si       1.34242636       4.11308403       4.09083562      -0.91487200      -1.02054585      -1.03123296
Si       2.72154673      -0.00317454       2.73391425      -0.42636060      -0.04716845      -0.39166931
Si       4.07656356       1.37373669       4.12203299      -0.25413182       1.37504986       0.55552094
Si       2.75268441       2.72984191       0.01386054       0.99064299       0.69608761       1.15284792
Si       4.08875328       4.12345047       1.35751049       1.07716630      -0.21636630       1.07900513
8
Lattice="5.4709021605 0.0 0.0 0.0 5.4709021605 0.0 0.0 0.0 5.4709021605" Properties=species:S:1:pos:R:3:momenta:R:3 time_fs=95.0 temperature_K=241.18281418443152 pbc="T T T"
Si       0.00175616      -0.00428611      -0.02585634      -1.25272198      -0.08780937      -0.99913045
Si       1.38337956       1.34575217       1.34839478       0.84875425      -0.17667074      -0.24189881
Si       0.04040853       2.72761482       2.75989942      -0.30726807      -0.48025934      -0.16594421
Si       1.33504713       4.10403242       4.08214907      -0.77000946      -1.04539106      -0.95108089
Si       2.71786175      -0.00351078       2.73054060      -0.41355594      -0.03002559      -0.37619359
Si       4.07476744       1.38561122       4.12661021      -0.15910684       1.33637412       0.48831553
Si       2.76087635       2.73618306       0.02376221       0.87992618       0.75448890       1.10962801
Si       4.09860956       4.12130968       1.36720653       1.17398186      -0.27070691       1.13630441
8
Lattice="5.4709021605 0.0 0.0 0.0 5.4709021605 0.0 0.0 0.0 5.4709021605" Properties=species:S:1:pos:R:3:momenta:R:3 time_fs=97.5 temperature_K=231.83899517629 pbc="T T T"
Si      -0.00938003      -0.00492683      -0.03439689      -1.28786077      -0.05880626      -0.95152701
Si       1.39065807       1.34437711       1.34639047       0.81077406      -0.13830740      -0.21895979
Si       0.03707476       2.72325801       2.75795262      -0.45208318      -0.51815961      -0.27966901
Si       1.32899871       4.09487339       4.07427040      -0.61163319      -1.04507431      -0.84711007
Si       2.71436218      -0.00370634       2.72739363      -0.38381099      -0.01527438      -0.34000550
Si       4.07373841       1.39703714       4.13052727      -0.07935109       1.27294684       0.40501842
Si       2.76802971       2.74303398       0.03323014       0.75407743       0.81217487       1.05391074
Si       4.10922466       4.11876003       1.37733884       1.24988773      -0.30949975       1.17834222
8
Lattice="5.4709021605 0.0 0.0 0.0 5.4709021605 0.0 0.0 0.0 5.4709021605" Properties=species:S:1:pos:R:3:momenta:R:3 time_fs=100.0 temperature_K=218.21030767848245 pbc="T T T"
Si      -0.02065982      -0.00531864      -0.04245294      -1.28538354      -0.03127656      -0.88850588
Si       1.39747626       1.34332655       1.34452817       0.74365794      -0.10244494      -0.20941605
Si       0.03256145       2.71852756       2.75501088      -0.57593412      -0.56532006      -0.39260790
Si       1.32437061       4.08582580       4.06739024      -0.44633106      -1.02013434      -0.72352848
Si       2.71119836      -0.00378844       2.72464881      -0.33677448      -0.00427122      -0.28453529
Si       4.07332733       1.40781115       4.13365667      -0.01831769       1.18785496       0.30877955
Si       2.77403636       2.75037606       0.04216161       0.61861947       0.86634175       0.98717979
Si       4.12039594       4.11594644       1.38776304       1.30046347      -0.33074960       1.20263425
