153
Lattice="10.0 0.0 0.0 0.0 10.0 0.0 0.0 0.0 100.0" Properties=species:S:1:pos:R:3:move_mask:L:1:momenta:R:3:origin_atom_id:I:1:forces:R:3 energy=-1127.209666877985 free_energy=-1127.209666877985 stress="0.00263413433826639 0.0030437167622929637 0.00028614038236053407 0.0030437167622929637 0.005537478026327087 -0.00016895912094178682 0.00028614038236053407 -0.00016895912094178682 -0.0002403295627182357" pbc="T T T"
O        2.04128217       5.08386573      13.74563291  T      -2.28287588      -0.62989190       2.10423575        0       1.35850516      -0.44009758       0.33595862
O        1.65166239       2.79553848      12.34321892  T       2.22926528       0.59765914      -1.02941507        1      -0.94749476      -3.41948901       0.88325196
O        3.90553299       3.20400117      14.44196891  T      -0.54418103       0.58618692       0.95930258        2      -1.27041529       2.21350108      -0.20791295
O        2.96682191       5.44452973      16.17407049  T       0.18065555       0.57573250      -1.53495197        3       1.74814539      -0.64012166      -0.25751676
O        1.59897534       3.23183595      15.44076271  T      -0.39687693      -0.22452590       1.49867263        4      -3.23879030       0.05758165       2.48861318
O        5.00648461       2.09015366      16.22378342  T      -0.41050868       3.42395660      -0.81868720        5      -0.27774309      -0.17807483      -0.50522227
O        5.22359419       1.51373515      13.25619776  T      -1.29711897       2.07674073      -0.28947387        6      -0.92753760       1.06869569       2.05825756
O        6.55587302       3.67987482      14.44394997  T       1.19285186      -0.27806869      -0.68216135        7      -2.28781914       1.88997085      -0.17915085
O        7.05028231       1.39982172      15.11762485  T       1.83838744      -0.64714214       0.48461161        8       1.29138737      -0.79705177       0.25286960
O        8.90331512       2.61511418      16.48899795  T       2.00362014      -0.26508275       1.13452067        9       0.32107854       0.18825897      -1.03610354
O        9.78615767       0.44372063      15.17351652  T      -1.04050311      -0.38965140       1.70502028       10      -2.20638959       2.15366296       1.49081475
O        1.07689036       9.92791827      12.97824793  T       0.23974188       1.18370739      -0.50448445       11       1.19243675       0.80027632      -0.78535651
O        0.72461539       8.01228015      14.82254413  T      -1.69251633      -0.00991419       0.02896295       12       0.06137955      -1.28118328       1.21547035
O        9.90404278       6.99868093      12.38396287  T       0.09446036       1.55139499       0.45125071       13       3.11386704      -1.37968372      -2.30723751
O        5.49041826       6.41345994      15.25636076  T      -1.05105106      -1.26192216      -0.19981161       14      -1.49005851      -1.09808459       1.49083936
O        5.59582612       5.87641453      12.86290611  T       0.11283995      -0.87579856       0.58607489       15      -2.30214746       2.42818405      -3.62366194
O        7.88785030       5.77920524      13.97916519  T       0.38100726      -0.61695680      -0.76286201       16       2.95047672       2.81711941      -0.39657948
O        5.56260759       8.62706130      13.12650152  T       0.22170845      -1.19590560       1.40144673       17       1.94287530       0.92162637      -1.09550209
O        8.62253150       8.65754257      13.37979543  T      -0.74193207       0.98812025      -0.60859107       18       0.45402605       1.49984875       1.83898536
O        1.09931259       6.74001220      20.80085283  T      -0.68358788      -0.18084045      -0.93932540       19       0.30162832       1.47816271      -0.49022778
O        0.17798663       8.77745148      22.69757368  T       0.51767832      -1.56142560      -1.21278351       20       0.55274399      -0.33647668       0.85859138
O        1.51152386       1.95228132      19.86098841  T       2.47973898       0.69558330       1.33136011       21       0.92052307       2.21082531      -1.66432908
O        2.16504754       4.58381087      19.69475451  T      -0.79876244      -1.56026463       0.07153289       22      -0.60553840      -1.34152626      -1.75235358
O        3.33023589       2.76466994      18.02628630  T      -0.25807697       0.82921532       0.87988846       23      -0.97265599      -0.07563756       0.49286569
O        0.45157967       3.45300400      17.91904193  T      -0.92739914       0.98001965       0.21655463       24       2.67304447      -0.24557480       1.80621183
O       -0.40550251       5.11049191      15.99827293  T      -0.10484047       1.01824084       1.54194117       25       0.43587697      -0.92794477      -0.12659621
O        9.14428796       1.32393762      21.88132450  T       0.34368172       0.25308717       2.03437063       26      -0.86038737       0.68924376      -0.00108408
O        5.85279978       3.61232885      18.43445645  T      -1.60756216       0.43281126      -0.87413107       27       0.61159860      -0.82698162      -0.08347245
O        5.79947949       4.92512480      71.69885347  T      -1.15218268       1.11932445       4.31107138       28      -2.42593861      -6.73777390       4.49157619
O        7.73961183       3.35742261      20.68380246  T      -1.54048662       1.55850306      -0.79252568       29       0.12844969      -1.87945720      -0.11292867
O        6.27446410       1.16454078      21.59028968  T       1.73636132       0.92799081       0.61992609       30       1.93284005       0.98087112      -0.53803074
O        6.86527036       5.67119654      19.69638700  T       1.16453737      -1.29730303       3.68301698       31      -0.25390686      -1.81402642       1.54889919
O        8.09299967      10.03100081      17.24855656  T       0.74898559      -0.94456525       0.58306757       32       0.17639853       0.78712216      -1.18324593
O        3.65236692       7.96794010      16.66673587  T       0.27788510       0.47227279      -0.00000687       33       0.10468027       1.89227345      -0.03489624
O        3.90460464      10.75662256      20.64135508  T      -0.62683962       0.38579386       0.41333896       34       3.39380724       1.94062146       2.19995765
O        2.65653838       9.89658300      18.55595648  T      -0.74068589      -0.16786928       0.06948941       35       0.01047900      -0.43499108      -1.51111946
O        0.33715981       7.66208830      16.27716705  T       0.73778205      -1.19914246       1.20000845       36       0.69761921       2.21858968      -1.12947505
O        2.54820028       6.95755268      18.50876111  T       0.28952529       0.13694220       0.14427443       37      -1.10007582      -0.26113225       0.59882501
O        0.09418655       5.92514044      18.41230308  T       1.72600340       0.51904543      -0.47468783       38       1.16785615       1.40575005      -0.15056271
O        1.29294147       9.56555471      20.57173813  T      -0.65912142      -0.54211524       2.94631999       39       1.70777144       0.73924381      -0.18682086
O        3.95548980      12.11196247      22.78097075  T       2.45568011       1.34512493      -2.98658429       40       0.46175501       0.18992648      -0.33683845
O        8.10384585       0.59979286      19.74823015  T      -0.89877520       1.74516993      -1.93930569       41      -1.29341950       0.46055700      -1.23933312
O        5.03124088      13.34854306      20.65499477  T       1.49606010      -0.29434067       1.83366621       42       0.98842569       1.85448631       0.36378978
O        5.33108593       6.46723219      17.81882871  T       0.28306236      -0.44321352      -1.41238536       43      -2.16928725      -0.64044728      -1.26907253
O        5.74139194       0.87403768      18.27536683  T       0.48689805      -1.53702018       1.26948256       44      -0.31943312       0.36378334       0.62374727
O        7.87341559       6.79863935      17.34440237  T      -1.82302900      -1.16563578      -1.43886934       45       2.20104999      -0.65289165      -1.00797957
O        6.85420543       8.39129446      19.16908127  T       3.68742531       1.64699024       0.56420862       46      -0.54733693      -1.53332912      -1.74625729
O        2.14633190       4.17400126       3.97972208  T       0.26045490      -1.17232018      -1.01411030       47       0.24873488      -0.06318688      -1.56478021
O        1.70440273       2.46206504       1.75422899  T       1.42277766      -0.25270896      -2.29415369       48       0.09665453      -0.41920319       0.45087229
O        4.05075792       2.46936826       4.35305718  T       0.88377178      -1.31526131       0.75997782       49       3.14631307      -1.66265217      -1.55954901
O        3.98411102       4.49771449       6.28189907  T       0.70920190      -0.42790089      -0.74652739       50       1.47814510       0.37529828      -1.21505508
O        2.16351431       2.91425981       6.16144372  T       0.93698088       0.21668752       1.63989705       51      -0.13849906      -0.86052033      -0.56798892
O        5.12635484       1.36385471       6.18164040  T      -1.67542525      -1.46280044       0.03544570       52       0.37671477       0.41734936       0.14318635
O        5.57722135       0.76418812       3.35603114  T      -2.08235055      -1.87198311       0.78893384       53      -0.22071584      -0.60601101      -0.33945990
O        6.43060570       3.55941852       3.99494525  T      -0.81090964       0.66947182       0.31632355       54      -1.11690742      -1.98980402       0.68596875
O        7.38724117       1.34637845       5.07109352  T       0.60978973       0.17934309       1.01627304       55      -0.39375888       1.23126221       0.06202778
O        9.63430526       2.20033259       6.62179783  T       0.80719571      -0.44717369       0.53641060       56      -1.63143706      -0.83899020      -0.96607441
O        9.70444774       0.46018036       4.60278742  T       2.10048062      -2.19906393       0.04416598       57       0.86671905       0.92074477      -0.19152538
O        1.07795062       9.71969133       2.52363676  T      -0.18000090       0.39650609       0.54010340       58      -0.86898851       0.94123224      -0.27756324
O        1.32701953       8.16274961       4.51045500  T      -0.69800856      -2.16176529       1.33005676       59      -2.12066927       0.98644754      -0.84848599
O        9.87000000       6.98000000       2.02000000  F       0.00000000       0.00000000       0.00000000       60      -2.67365940       0.17216990       1.84850493
O        5.17188893       6.08218154       4.46576994  T       2.64800057      -0.62987794      -0.60815928       61       1.33200937      -1.24697311       1.84037234
O        5.59000000       5.63000000       2.17000000  F       0.00000000       0.00000000       0.00000000       62       0.76304997      -0.45749133      -1.07598316
O        7.95800314       5.50361908       3.65535916  T      -0.05014314      -0.78950567      -1.37321236       63      -0.79265994       2.54823736      -1.21132841
O        5.46200475       8.18546474       2.58506501  T       1.40759201       0.37240220      -0.72408298       64       0.46876201       0.47489377      -0.22215847
O        8.57281658       8.33021100       3.76897831  T      -1.03167572      -0.21218971      -0.29016315       65       0.38045571      -1.25546501      -1.34429765
O        3.68234865       4.74998527      11.71262521  T      -2.40743117       0.60137823      -1.13651889       66      -1.06353004      -0.12386385       0.91348179
O        1.11237082       4.97021277      11.38219772  T       0.11079111      -0.43990717       0.07486340       67       0.58421854       0.07453747       0.03524625
O        1.96275272       0.91517085      10.68906775  T      -0.49812529      -1.52273298       0.25601497       68      -0.54202329      -1.15098268       1.14651074
O        3.02246421       3.14170302       9.93628899  T      -0.13020841      -0.72929544       1.19242225       69      -0.42949620      -3.47061786      -1.60956009
O        4.07211136       0.90119165       8.73939669  T       0.74234412      -3.04457961       0.73595788       70      -0.13388393       0.95961008       0.00118172
O        1.55935348       1.73709466       8.37851539  T      -1.15875357       1.58158250       0.01129754       71      -1.50051301       0.37634232      -2.13178334
O        0.68451777       4.22292377       7.90943601  T      -0.35852622      -1.32919104       0.86244224       72       1.07614272      -2.05944209       0.52603732
O        9.35007830       1.42746837      11.62638274  T       0.77866772       2.36763478       1.22896105       73       0.25123933      -0.76292488       0.25476552
O        6.10192162       2.85855518       8.14135961  T      -0.89712114      -0.31855927       0.59968364       74      -0.82240788      -0.74073328       0.09054331
O        5.65928876       4.03301226      10.56625141  T      -1.50974243       0.21781295       1.55239111       75      -0.92706074      -0.29929043      -2.30070168
O        7.93805171       2.84890601      10.23087276  T       0.58494318      -0.84370415      -0.16089277       76      -1.47916396       0.33983079      -1.79379038
O        6.77026109       0.74733869      11.43577494  T       1.06317299      -1.85927254       1.35178415       77      -1.45492965      -1.03685820       0.77043659
O        7.32143928       5.20144470       8.84015422  T       0.37291893      -0.63458254      -1.61640602       78       0.42788762      -2.80403009       2.82562888
O        8.50475605       9.69464134       6.80550005  T      -1.61494002       1.87074919       2.36441362       79       2.26562099       2.74817169      -3.28361996
O        4.24191182       6.91446866       6.90423026  T      -0.37916194       1.91056833       0.49916569       80      -0.62007952       2.23253924       1.39812200
O        4.27795755       9.63638201      11.56576763  T      -2.17084220       0.66802163      -0.20423418       81      -2.31837132       0.70158719      -2.89741972
O        3.27824391       8.07506973       9.07485507  T      -0.08199750      -0.24065726       0.85761784       82       0.43810469       2.18671746      -0.55261267
O        1.81470162       6.55279845       7.26160119  T      -1.87434994      -0.44991594       2.86312072       83       2.51958216       1.14641977       1.03116304
O        3.66616341       5.50906642       9.09362342  T      -0.36716662      -0.75898715       1.06063759       84       0.62764187      -2.00413729       1.37272351
O        0.36337067       6.34935190       9.55503234  T      -0.62705877      -1.15785266       3.06762094       85       0.19380705       0.74861918      -1.16347236
O        2.23175524       7.71764933      11.13216029  T       2.63252058       0.33492312       0.92865309       86      -0.59887115      -1.32740519       1.65984845
O        5.16065028       7.48829442      10.58066364  T       1.04051117       0.88768322       0.93567965       87      -1.81858509       0.02794396      -0.90643480
O        8.39105050       0.19707250       9.49840433  T       0.42752289       1.27986536       1.88092112       88       1.09182886      -1.55826658      -1.19892279
O        7.40055594       7.02591542      11.76816847  T       0.15892407       1.00568633       1.09583026       89      -0.01484281       1.21948949      -1.05373327
O        6.54458145       5.77791635       6.77256571  T      -0.63799273       1.97577099       0.35225649       90      -1.73898012      -0.06837003      -2.97723838
O        6.35222232      10.22249676       8.26459744  T       0.48820056      -0.54990849      -0.47994229       91       0.80410433      -1.85691605      -0.21983585
O        9.30681360       5.87342753       6.99370645  T      -0.05441913       0.45574531       1.08803176       92      -3.90320499       1.72963152      -0.16842710
O        7.81328734       7.76861636       8.08792979  T       0.70649472       0.48789526       0.57712478       93      -0.67842468       0.51866041       1.07426235
O        3.55000000       4.18000000       1.53000000  F       0.00000000       0.00000000       0.00000000       94      -0.25511521      -0.21996029       0.48848270
O        1.14000000       4.89000000       1.35000000  F       0.00000000       0.00000000       0.00000000       95      -1.21402023      -0.78476938       0.05941429
O        9.29000000       1.31000000       1.44000000  F       0.00000000       0.00000000       0.00000000       96       1.14265387      -0.09497773       0.12499732
O        6.84000000       0.20000000       1.30000000  F       0.00000000       0.00000000       0.00000000       97      -0.81884109      -1.00321162       0.39141840
O        3.95000000       9.60000000       1.25000000  F       0.00000000       0.00000000       0.00000000       98       2.12916365       1.36363725       0.29585845
O        2.28000000       7.42000000       1.08000000  F       0.00000000       0.00000000       0.00000000       99      -2.81163243      -2.06221495      -1.66542810
O        7.52000000       7.21000000       1.37000000  F       0.00000000       0.00000000       0.00000000      100       0.78874162      -0.35175789       0.79863826
Si       2.24876411       4.28880042      12.32316532  T      -0.52449813      -0.46516445       1.39195984      101      -1.53511977       0.24776767      -0.05149353
Si       2.76142619       4.27078431      14.98026072  T      -0.27156700       2.35285649      -2.10028835      102       0.07364603      -0.39160203      -0.25743577
Si       0.91419302       1.22999582      12.01701546  T      -1.91721876      -1.91418263       2.29421862      103       2.42129907       3.16961444      -3.18974888
Si       8.47728189       1.15937526      16.03838743  T       2.56969584       0.41117252       0.58262152      104      -2.47014182      -2.54757564      -1.61242756
Si       5.34952851       2.40765456      14.65464791  T       0.42759625      -1.02933609       1.39689220      105       3.44082408       1.88689529       0.22588432
Si       4.24869049       6.46943717      16.47013866  T       0.12759484      -2.99404795       3.54925274      106       3.75238495       0.19017490      -0.35829301
Si       0.02108830       9.39756294      14.01592829  T       1.20175302      -1.42787778       0.45815396      107      -2.85697701      -3.70016482       1.89584180
Si       6.33444589       5.47737533      14.15413078  T       1.01572581       2.33263129       1.82053023      108      -0.71257735      -3.67330035       3.16635743
Si       5.55307534      10.28445324      12.39029345  T       1.22753599      -2.79111930      -1.08846997      109      -0.26567364      -4.43334977      -0.30801606
Si       8.45913337       7.05248303      12.98703488  T      -0.64612387      -2.07695630       0.41632660      110      -1.62009421       0.16650352       0.48809920
Si       1.51635060       6.02679818      19.33937265  T      -0.55959495      -1.34471095       0.61009486      111      -1.86277231       1.26160877       0.59197758
Si       1.84440518       3.21326467      18.69004340  T      -1.13176857       1.19759187      -0.89114546      112       2.06561161      -1.01080072       4.05373684
Si       0.18005870       3.61542665      16.36327845  T      -0.70345681      -2.73783921       0.16964924      113       0.29068576       0.37842606      -2.34404252
Si       4.92848285       2.36085966      17.77707568  T      -1.80592140      -0.32534462      -1.04343168      114       2.01534192      -0.45062109       1.53106514
Si       6.45854135       4.06649484      20.01114852  T      -1.93417501      -1.21305306       2.20912796      115      -2.20158432       0.52199499      -3.69619705
Si       7.79177695       1.64725867      20.93550227  T      -0.59174138       0.54154216      -0.45008060      116       0.27520714      -0.69632334       1.60463150
Si       2.50862128      10.69683786      20.03748673  T      -0.34064004       1.32141491       0.28569744      117      -5.69250921      -3.24196414      -2.72732374
Si       3.26111599       8.39740679      18.21177833  T      -0.37504679      -0.38810175       2.41662180      118       0.22515981       0.48274659       1.67103400
Si       0.55321990       8.30298686      21.16430960  T      -0.54777988       0.94303777       2.97990041      119      -3.15706246      -2.11258689       0.20590972
Si      -0.52653248       6.42989373      16.93752705  T      -5.23943757      -0.26510062       0.93969860      120      -1.40864313      -1.00705105       1.58951597
Si       4.87195586      11.95185745      21.41370184  T      -0.03782884       2.22851015       1.18273792      121      -1.70624875      -2.15185528       1.67402410
Si       6.74781405       6.76758858      18.50680367  T       1.20019598       0.03412704      -1.24286685      122      -0.14363448       2.35414090       0.42645228
Si       7.08764906       9.87663914      18.54666881  T       0.06308677      -2.73048274       2.27533755      123       0.37971368       1.98919376       0.85212328
Si       2.10000000       3.98000000       2.32000000  F       0.00000000       0.00000000       0.00000000      124       2.92072114       0.82725487       0.54876486
Si       3.27044348       3.50467419       5.16433565  T       0.34960831      -0.75035161       4.05277123      125      -2.75967735       2.06811360       0.68405936
Si       0.89000000       1.15000000       1.77000000  F       0.00000000       0.00000000       0.00000000      126      -2.20107750      -2.15409815       1.16520861
Si       8.79992258       1.05920686       5.79845481  T      -1.24297507      -1.64850122       0.45869586      127      -1.37835647      -1.28065660       0.85292287
Si       5.78124667       1.80677236       4.59574963  T       0.26507319       0.98198329       0.70460602      128      -0.80620497       1.68237814       1.08262106
Si       5.01865522       5.81423101       6.13569993  T      -0.22844748       0.43044813       2.08973036      129       1.23069500      -1.45622788      -1.71813382
Si       0.04947052       9.12131250       3.82295274  T      -1.44286188      -0.17928608      -1.29004628      130       3.02841705      -2.03091313       1.03633071
Si       6.26527467       5.10071453       3.63823506  T      -0.49888751      -0.28794595      -1.75794384      131      -0.33341175       0.16208549      -0.17384063
Si       5.42000000       9.77000000       2.06000000  F       0.00000000       0.00000000       0.00000000      132      -2.57511739       0.78980462       0.71259588
Si       8.41595160       6.90916630       2.86393223  T      -1.36602466       0.86210388       0.38434233      133       0.74898059       0.76602837      -1.52034539
Si       4.03007420       4.27341080      10.22028940  T      -1.62766849      -1.89446199      -0.88033741      134       2.23512298       3.42784873      -0.06933528
Si       2.74076020       1.53972227       9.41255130  T       1.17031468       1.70075107       2.15382041      135      -1.02790132       2.16147648       1.29177870
Si       1.00198882       2.79133133       7.21185413  T      -2.11202002      -2.56219631      -1.38099248      136       0.57642405       0.05615036       2.37533320
Si       5.36244304       1.37530356       7.80455673  T      -0.96237073      -1.83064782      -2.01507809      137       0.25591385       0.38307427      -1.44738720
Si       6.76053646       3.70190414       9.37222466  T       0.20659650       0.01062364      -0.27864393      138       1.44174797       1.49637904       1.11876797
Si       8.00606691       1.26072760      10.61706106  T       3.14589316      -0.29146584       1.41392105      139       3.14127055       1.47875336       0.92537969
Si       3.72358950       8.35801087      10.63936687  T       1.48924737      -1.29250053      -1.26417302      140      -1.82113948      -0.65489846       0.01036202
Si       3.24019942       6.75761082       8.19481496  T      -2.31307002       0.91473358       0.16588429      141      -0.48458953      -0.05435484      -2.49325363
Si       0.89992642       6.53642401      11.15453308  T      -0.64166028      -1.24403570       1.44788754      142       0.79006102       1.56356570      -1.90619686
Si       0.59613173       5.81636761       7.91078599  T       1.66327256      -1.27609300       5.20866097      143      -0.99772324      -0.55952068       3.64828321
Si       5.81617859       7.38879964      11.99225077  T      -2.22510955      -2.13880278       0.23340113      144       2.60712768      -2.62344230       4.87353901
Si       7.79043345       6.18599147       7.68354006  T       0.91865413      -2.06819662      -0.34276918      145       1.07976068       0.75567997      -0.53744736
Si       7.79717775       9.41670274       8.14647523  T       0.25025554      -0.04853132       0.04453566      146      -1.79537772      -0.37488966       2.72290694
Si       7.93000000       1.02000000       0.50000000  F       0.00000000       0.00000000       0.00000000      147       0.52994556       0.98682972      -1.68240933
Si       0.91000000       6.44000000       0.98000000  F       0.00000000       0.00000000       0.00000000      148       5.73426643       2.27135569       1.50142145
Si       5.91000000       7.08000000       1.49000000  F       0.00000000       0.00000000       0.00000000      149      -0.58892401      -1.19529737       2.04234026
C        5.43914870       3.92434675      72.36599757  T       1.18284829      -1.28628434       3.86375941      150       2.42593861       6.73777390      -4.49157619
F        4.22978859       8.40503209      19.54178766  T      -2.08960652       0.09925643       0.09523570      151       0.36355176      -0.51563873      -0.85987342
F        8.85877852       8.05291226      20.84588048  T       0.81751435       0.15435797      -0.64017422      152       2.55134714       0.48496092      -0.18761007
