8
Lattice="5.4702 0.0 0.0 0.0 5.4702 0.0 0.0 0.0 5.4702" Properties=species:S:1:pos:R:3:momenta:R:3 time_fs=0.0 temperature_K=300.0000000000001 pbc="T T T"
Si       0.00000000       0.00000000       0.00000000       0.02002556      -0.15248147       0.86102025
Si       1.36755000       1.36755000       1.36755000      -0.17891388       0.97795914       1.04442787
Si       0.00000000       2.73510000       2.73510000      -0.21861087       1.67179471       0.86712523
Si       1.36755000       4.10265000       4.10265000      -1.15372342      -0.03832433      -0.88234083
Si       2.73510000       0.00000000       2.73510000       0.67374100      -0.03073151      -0.78440535
Si       4.10265000       1.36755000       4.10265000       0.75030077       0.31245433      -0.20338906
Si       2.73510000       2.73510000       0.00000000       1.20699627      -1.57042424      -0.13984422
Si       4.10265000       4.10265000       1.36755000      -1.09981542      -1.17024663      -0.76259388
8
Lattice="5.4702 0.0 0.0 0.0 5.4702 0.0 0.0 0.0 5.4702" Properties=species:S:1:pos:R:3:momenta:R:3 time_fs=10.0 temperature_K=225.71748014632996 pbc="T T T"
Si       0.00073521      -0.00499868       0.02952071       0.02373411      -0.12521194       0.81005848
Si       1.36136007       1.40079830       1.40331120      -0.17262256       0.89694140       0.97822706
Si      -0.00849300       2.79126493       2.76334331      -0.29521773       1.47182503       0.68635935
Si       1.33089954       4.10241669       4.07460654      -0.84001012       0.06366008      -0.64266389
Si       2.75743807      -0.00102157       2.70891068       0.57006948      -0.02603307      -0.67896999
Si       4.12903155       1.37676915       4.09540946       0.76246228       0.16732533      -0.21518414
Si       2.77375256       2.68198199      -0.00609783       0.90689105      -1.42139181      -0.23727022
Si       4.06587600       4.06338918       1.34159593      -0.95530651      -1.02711502      -0.70055665
8
Lattice="5.4702 0.0 0.0 0.0 5.4702 0.0 0.0 0.0 5.4702" Properties=species:S:1:pos:R:3:momenta:R:3 time_fs=20.0 temperature_K=106.73221680426548 pbc="T T T"
Si       0.00192715      -0.00837098       0.05562275       0.05035884      -0.06367617       0.67101029
Si       1.35563681       1.42867413       1.43447834      -0.15314492       0.67731571       0.78444324
Si      -0.02251576       2.83376934       2.77934349      -0.52043899       0.91468182       0.19338497
Si       1.31455187       4.10991327       4.06222282      -0.04181174       0.39270629      -0.02348398
Si       2.77311392      -0.00168651       2.68961586       0.30851498      -0.00981494      -0.40261332
Si       4.15608079       1.37646790       4.08726447       0.77977128      -0.21345564      -0.25351716
Si       2.79321912       2.63806397      -0.01776351       0.15603038      -1.06449956      -0.43663377
Si       4.03858610       4.03376888       1.31981578      -0.57927983      -0.63325751      -0.53259027
8
Lattice="5.4702 0.0 0.0 0.0 5.4702 0.0 0.0 0.0 5.4702" Properties=species:S:1:pos:R:3:momenta:R:3 time_fs=30.0 temperature_K=91.00881323839478 pbc="T T T"
Si       0.00474422      -0.00920719       0.07594470       0.11802330       0.01912697       0.48765569
Si       1.35066773       1.44704481       1.45706568      -0.13194958       0.36063844       0.49531911
Si      -0.04394708       2.85428974       2.77669585      -0.66278226       0.27561759      -0.31348933
Si       1.32873567       4.12975187       4.07349943       0.82117313       0.70842855       0.64166349
Si       2.77850412      -0.00155134       2.68163019       0.00267556       0.01962697      -0.05096056
Si       4.18261632       1.36096004       4.07782264       0.71443070      -0.66783623      -0.27840286
Si       2.78343729       2.60887820      -0.03660173      -0.69971754      -0.59025227      -0.63413659
Si       4.02584174       4.02043386       1.30454323      -0.16185332      -0.12535001      -0.34764896
8
Lattice="5.4702 0.0 0.0 0.0 5.4702 0.0 0.0 0.0 5.4702" Properties=species:S:1:pos:R:3:momenta:R:3 time_fs=40.0 temperature_K=134.97282609535995 pbc="T T T"
Si       0.01063859      -0.00688972       0.08969385       0.22422452       0.11312787       0.29967446
Si       1.34627446       1.45336329       1.46863013      -0.12169158      -0.00123250       0.16353513
Si      -0.06487698       2.85549706       2.76110117      -0.47486300      -0.16440594      -0.51596475
Si       1.36763806       4.15583880       4.10367725       1.32134145       0.72542233       1.02272340
Si       2.77413896      -0.00022593       2.68561018      -0.23276410       0.05608133       0.26355251
Si       4.20404142       1.33138466       4.06863220       0.48007140      -0.98394398      -0.23356306
Si       2.74739353       2.59730945      -0.06130615      -1.29273062      -0.07201195      -0.76077441
Si       4.02535195       4.02432238       1.29456137       0.09641193       0.32696285      -0.23918328
8
Lattice="5.4702 0.0 0.0 0.0 5.4702 0.0 0.0 0.0 5.4702" Properties=species:S:1:pos:R:3:momenta:R:3 time_fs=50.0 temperature_K=138.05432625497468 pbc="T T T"
Si       0.02060662      -0.00158211       0.09697636       0.34460080       0.18184005       0.11672245
Si       1.34203120       1.44732393       1.46863031      -0.12088402      -0.33134009      -0.15772475
Si      -0.07406253       2.84539250       2.74450617      -0.02573175      -0.38316049      -0.38881538
Si       1.41506064       4.17723632       4.14076703       1.30228178       0.46878629       1.03959902
Si       2.76385238       0.00221897       2.69852804      -0.33086086       0.07923860       0.44725240
Si       4.21440237       1.29564389       4.06227402       0.09476771      -1.00207781      -0.12206142
Si       2.69877144       2.60297335      -0.08804027      -1.39684231       0.36970674      -0.73384298
Si       4.02993787       4.04139315       1.28695834       0.13266865       0.61700671      -0.20112934
8
Lattice="5.4702 0.0 0.0 0.0 5.4702 0.0 0.0 0.0 5.4702" Properties=species:S:1:pos:R:3:momenta:R:3 time_fs=60.0 temperature_K=88.48741179735771 pbc="T T T"
Si       0.03425721       0.00496668       0.09772777       0.42174190       0.17747006      -0.07758264
Si       1.33806876       1.43155963       1.45827147      -0.09803274      -0.54440995      -0.42087677
Si      -0.06642838       2.83036262       2.73590556       0.44729252      -0.45675411      -0.08927523
Si       1.45294975       4.18803269       4.17253752       0.78956414       0.15867856       0.72436734
Si       2.75252025       0.00487109       2.71477109      -0.29982703       0.06471234       0.45049059
Si       4.21021954       1.26536811       4.06043565      -0.32881485      -0.67377240       0.01994299
Si       2.65594135       2.62037019      -0.10973327      -0.96831503       0.57327115      -0.45965739
Si       4.03307153       4.06506898       1.28068421       0.03639110       0.70080434      -0.14740888
8
Lattice="5.4702 0.0 0.0 0.0 5.4702 0.0 0.0 0.0 5.4702" Properties=species:S:1:pos:R:3:momenta:R:3 time_fs=70.0 temperature_K=50.35614670963571 pbc="T T T"
Si       0.04855033       0.00977780       0.09119023       0.36560926       0.08466042      -0.30177625
Si       1.33596149       1.41125601       1.44043848      -0.00866325      -0.58669160      -0.57700744
Si      -0.04469273       2.81460417       2.73831414       0.75969041      -0.43046295       0.21668808
Si       1.46622886       4.18963531       4.18818832      -0.06547671      -0.05014452       0.13497374
Si       2.74364448       0.00622445       2.72807431      -0.20307881       0.00651542       0.28695402
Si       4.19248036       1.25171371       4.06384601      -0.66159476      -0.07384441       0.17735043
Si       2.63580494       2.63940268      -0.11712412      -0.13720325       0.47211167       0.07076959
Si       4.03262226       4.08798587       1.27767261      -0.04928290       0.57785596      -0.00795217
8
Lattice="5.4702 0.0 0.0 0.0 5.4702 0.0 0.0 0.0 5.4702" Properties=species:S:1:pos:R:3:momenta:R:3 time_fs=80.0 temperature_K=96.54469110299762 pbc="T T T"
Si       0.05745130       0.01034864       0.07638686       0.10846113      -0.05309762      -0.54399889
Si       1.33836980       1.39238708       1.41955826       0.15614080      -0.47114910      -0.59384206
Si      -0.01598452       2.80092697       2.74975330       0.84253687      -0.34764844       0.41128800
Si       1.44819446       4.18462024       4.18088442      -0.93262082      -0.25352662      -0.54485703
Si       2.73828386       0.00510474       2.73379985      -0.10764201      -0.06992371       0.03551630
Si       4.16592839       1.26132896       4.07288651      -0.82612505       0.62122107       0.33691705
Si       2.64728945       2.65216441      -0.10389053       0.77227537       0.26970095       0.67495101
Si       4.03106725       4.10371897       1.28122134      -0.01302629       0.30442347       0.22402562
8
Lattice="5.4702 0.0 0.0 0.0 5.4702 0.0 0.0 0.0 5.4702" Properties=species:S:1:pos:R:3:momenta:R:3 time_fs=90.0 temperature_K=191.62506247109428 pbc="T T T"
Si       0.05411869       0.00650660       0.05360711      -0.31789305      -0.15358820      -0.74564918
Si       1.34710930       1.37916699       1.40017063       0.33915535      -0.28170552      -0.50373819
Si       0.01155587       2.79000108       2.76484273       0.69437053      -0.29063171       0.41373154
Si       1.40549107       4.17013747       4.15218427      -1.42080328      -0.59597922      -1.04724929
Si       2.73568644       0.00165542       2.73101478      -0.04835728      -0.11945642      -0.17712536
Si       4.13675768       1.29366015       4.08680938      -0.81402705       1.18775843       0.44340074
Si       2.68614181       2.66071579      -0.07201940       1.37204998       0.26712845       1.10513399
Si       4.03373914       4.10875652       1.29399050       0.19550480      -0.01352582       0.51149576
8
Lattice="5.4702 0.0 0.0 0.0 5.4702 0.0 0.0 0.0 5.4702" Properties=species:S:1:pos:R:3:momenta:R:3 time_fs=100.0 temperature_K=237.44006237805172 pbc="T T T"
Si       0.03494450       0.00074729       0.02545226      -0.76616207      -0.15878798      -0.84401456
Si       1.36125300       1.37231698       1.38449802       0.45107503      -0.12191181      -0.39768199
Si       0.03004081       2.77896647       2.77576011       0.32855328      -0.37252218       0.16582080
Si       1.35557522       4.14288780       4.11192007      -1.33629935      -0.93689098      -1.18404945
Si       2.73433879      -0.00262652       2.72320089      -0.03678957      -0.11689156      -0.23898026
Si       4.11078044       1.34066334       4.10231602      -0.64827398       1.43594761       0.41516004
Si       2.73704973       2.67395923      -0.02966074       1.44507291       0.52463328       1.27487664
Si       4.04661750       4.10368541       1.31711338       0.56282375      -0.25357637       0.80886880
8
Lattice="5.4702 0.0 0.0 0.0 5.4702 0.0 0.0 0.0 5.4702" Properties=species:S:1:pos:R:3:momenta:R:3 time_fs=110.0 temperature_K=213.47494950884166 pbc="T T T"
Si       0.00248101      -0.00366271      -0.00404723      -1.04801522      -0.08503942      -0.82477899
Si       1.37712149       1.36955522       1.37164332       0.43260999      -0.05375584      -0.35091967
Si       0.03271310       2.76154134       2.77360904      -0.18751470      -0.65395097      -0.31845421
Si       1.31795551       4.10793809       4.07449089      -0.74877075      -1.00011858      -0.88682474
Si       2.73267924      -0.00608922       2.71642674      -0.06133603      -0.07753484      -0.12062360
Si       4.09255669       1.38947085       4.11389646      -0.38826631       1.29145146       0.22385832
Si       2.78114350       2.69868397       0.01444039       1.00272510       0.89011229       1.21004347
Si       4.07394946       4.09316247       1.35014039       0.99856792      -0.31116410       1.06769942
8
Lattice="5.4702 0.0 0.0 0.0 5.4702 0.0 0.0 0.0 5.4702" Properties=species:S:1:pos:R:3:momenta:R:3 time_fs=120.0 temperature_K=186.47877491470953 pbc="T T T"
Si      -0.03478855      -0.00501528      -0.03113256      -1.02736535       0.00526285      -0.71023554
Si       1.38995747       1.36728229       1.35892142       0.28235038      -0.09435592      -0.39091421
Si       0.01794864       2.73222962       2.75307563      -0.61044042      -1.01563773      -0.83173503
Si       1.30564890       4.07670473       4.05344715       0.04504269      -0.75057869      -0.29137203
Si       2.73009328      -0.00794689       2.71622478      -0.08215999      -0.02854459       0.12172013
Si       4.08293212       1.42741226       4.11717139      -0.18767083       0.84262400      -0.03412099
Si       2.80375628       2.73528401       0.05256217       0.26898821       1.17818721       0.93832259
Si       4.11505186       4.08464927       1.39033002       1.31125531      -0.13695715       1.19833508
8
Lattice="5.4702 0.0 0.0 0.0 5.4702 0.0 0.0 0.0 5.4702" Properties=species:S:1:pos:R:3:momenta:R:3 time_fs=130.0 temperature_K=172.6146225892886 pbc="T T T"
Si      -0.06570403      -0.00372656      -0.05296342      -0.69426605       0.05973294      -0.53012771
Si       1.39597781       1.36180465       1.34350524       0.05659121      -0.23292269      -0.49800916
Si      -0.00490107       2.69223877       2.71907830      -0.60774804      -1.23492396      -1.03972094
Si       1.31886768       4.05623571       4.05384295       0.65385244      -0.42697542       0.28576963
Si       2.72740071      -0.00809234       2.72516176      -0.06455266       0.02033879       0.38304423
Si       4.07691470       1.44719367       4.11259530      -0.19717815       0.28783141      -0.20211898
Si       2.80042004       2.77897089       0.07836870      -0.42813359       1.28604397       0.52295080
Si       4.16162416       4.08597520       1.43101117       1.28143484       0.24087496       1.07821214
8
Lattice="5.4702 0.0 0.0 0.0 5.4702 0.0 0.0 0.0 5.4702" Properties=species:S:1:pos:R:3:momenta:R:3 time_fs=140.0 temperature_K=145.4322072512553 pbc="T T T"
Si      -0.08090012      -0.00146808      -0.06786721      -0.15246968       0.06116958      -0.32068620
Si       1.39415116       1.35026776       1.32391147      -0.14888143      -0.43243179      -0.62002771
Si      -0.01903772       2.64842625       2.68550151      -0.14479551      -1.23362897      -0.81585328
Si       1.34662501       4.04592665       4.07048493       0.86058184      -0.17465240       0.61455758
Si       2.72592345      -0.00650864       2.74200047      -0.01879800       0.07018265       0.55819581
Si       4.06672632       1.44845453       4.10504102      -0.40797910      -0.19115762      -0.20140586
Si       2.77723626       2.82279681       0.08910785      -0.83603485       1.18335029       0.10569288
Si       4.19987565       4.10270470       1.46241996       0.84837673       0.71716824       0.67952678
8
Lattice="5.4702 0.0 0.0 0.0 5.4702 0.0 0.0 0.0 5.4702" Properties=species:S:1:pos:R:3:momenta:R:3 time_fs=150.0 temperature_K=118.2426502375792 pbc="T T T"
Si      -0.07592006       0.00012405      -0.07563237       0.42688027       0.02615409      -0.13216477
Si       1.38694140       1.33162425       1.30064402      -0.23737248      -0.62482050      -0.69771778
Si      -0.01363450       2.60877272       2.66513555       0.43832213      -0.98774614      -0.32437597
Si       1.37420031       4.04361384       4.09298978       0.65205258       0.04276513       0.61520240
Si       2.72578771      -0.00327390       2.76237824       0.00115601       0.11149319       0.57738003
Si       4.04806206       1.43609375       4.10019482      -0.64472619      -0.47695726      -0.05638920
Si       2.74655777       2.85902821       0.08771885      -0.85073798       0.84733506      -0.14629797
Si       4.21860531       4.13461708       1.47717111       0.21442566       1.06177643       0.16436326
8
Lattice="5.4702 0.0 0.0 0.0 5.4702 0.0 0.0 0.0 5.4702" Properties=species:S:1:pos:R:3:momenta:R:3 time_fs=160.0 temperature_K=92.09414030005756 pbc="T T T"
Si      -0.05294710       0.00025080      -0.07806117       0.84304571      -0.01911582      -0.02385990
Si       1.37956654       1.30782805       1.27646839      -0.15473400      -0.70791485      -0.65738346
Si       0.00879452       2.58259557       2.66331471       0.78824095      -0.46794250       0.21372665
Si       1.38857777       4.04906170       4.10976840       0.13433120       0.26741401       0.29891373
Si       2.72502192       0.00089952       2.78023604      -0.06136697       0.11975412       0.41330667
Si       4.02379654       1.41794780       4.10209707      -0.69893756      -0.51993083       0.17467379
Si       2.72199914       2.87936609       0.08177236      -0.50413272       0.28444932      -0.15636048
Si       4.21579067       4.17265046       1.47500420      -0.34644660       1.04328656      -0.26301702
8
Lattice="5.4702 0.0 0.0 0.0 5.4702 0.0 0.0 0.0 5.4702" Properties=species:S:1:pos:R:3:momenta:R:3 time_fs=170.0 temperature_K=81.95426480817497 pbc="T T T"
Si      -0.02086340      -0.00120046      -0.07848818       0.92722806      -0.06325945      -0.01460129
Si       1.37790071       1.28464166       1.25705607       0.07799895      -0.57554231      -0.41335845
Si       0.03745994       2.57787067       2.67890249       0.79616019       0.20566748       0.65090181
Si       1.38286492       4.06145939       4.11201266      -0.44289235       0.41566015      -0.17507389
Si       2.72050152       0.00460840       2.78946539      -0.20592202       0.08734315       0.09546789
Si       4.00254619       1.40220520       4.11264310      -0.46914674      -0.35320079       0.42385373
Si       2.71326189       2.87791194       0.07831768       0.00785512      -0.36144172      -0.03878733
Si       4.19692823       4.20310320       1.46069080      -0.69128121       0.64477349      -0.52840247
8
Lattice="5.4702 0.0 0.0 0.0 5.4702 0.0 0.0 0.0 5.4702" Properties=species:S:1:pos:R:3:momenta:R:3 time_fs=180.0 temperature_K=99.152207980785 pbc="T T T"
Si       0.00749895      -0.00401686      -0.07950817       0.63894960      -0.09261575      -0.03927109
Si       1.38550027       1.27047854       1.25017266       0.34914947      -0.19820155       0.05009277
Si       0.06115098       2.59618600       2.70634723       0.51728722       0.81251334       0.87401293
Si       1.36069501       4.07568549       4.09876421      -0.76019298       0.36043673      -0.54662071
Si       2.71068719       0.00694677       2.78638534      -0.34294020       0.04954198      -0.26620867
Si       3.99363873       1.39421421       4.13069311      -0.01360936      -0.10422932       0.58152232
Si       2.72114075       2.85591929       0.07797831       0.40413053      -0.85408455      -0.00804456
Si       4.17028812       4.21518657       1.43976730      -0.79277428       0.02663911      -0.64548298
8
Lattice="5.4702 0.0 0.0 0.0 5.4702 0.0 0.0 0.0 5.4702" Properties=species:S:1:pos:R:3:momenta:R:3 time_fs=190.0 temperature_K=124.1911591249594 pbc="T T T"
Si       0.02120542      -0.00707506      -0.08012303       0.12941534      -0.07133970       0.02971500
Si       1.40066120       1.27245013       1.26162217       0.47796692       0.32104802       0.60202696
Si       0.07118088       2.63175478       2.73652646       0.02652797       1.16927400       0.79759976
Si       1.33468966       4.08480213       4.07697910      -0.65559563       0.15086357      -0.64677517
Si       2.69813539       0.00840224       2.77209582      -0.34232215       0.03726386      -0.52231010
Si       4.00253437       1.39397216       4.15074945       0.52327079       0.06667703       0.52101633
Si       2.73828859       2.82153749       0.07576749       0.52760137      -1.06266767      -0.14289752
Si       4.14390449       4.20475612       1.41698254      -0.68686460      -0.61111911      -0.63837527
8
Lattice="5.4702 0.0 0.0 0.0 5.4702 0.0 0.0 0.0 5.4702" Properties=species:S:1:pos:R:3:momenta:R:3 time_fs=200.0 temperature_K=148.77511159826958 pbc="T T T"
Si       0.01714811      -0.00837604      -0.07540256      -0.33105784       0.00121221       0.26825456
Si       1.41541897       1.29273584       1.29091409       0.31048870       0.82527298       1.03955368
Si       0.06150080       2.67414042       2.75852143      -0.59010830       1.20154667       0.41532780
Si       1.31906349       4.08688549       4.05727314      -0.19284843      -0.00682629      -0.42818669
Si       2.68931901       0.00949413       2.75223560      -0.12393870       0.01927660      -0.57716087
Si       4.02951628       1.39692927       4.16399507       0.99815206       0.07392143       0.19533808
Si       2.75494489       2.78465172       0.06678773       0.38738696      -1.01037182      -0.38091655
Si       4.12368846       4.17413917       1.39627550      -0.45807445      -1.10403178      -0.53221002
8
Lattice="5.4702 0.0 0.0 0.0 5.4702 0.0 0.0 0.0 5.4702" Properties=species:S:1:pos:R:3:momenta:R:3 time_fs=210.0 temperature_K=192.58830924599968 pbc="T T T"
Si       0.00121317      -0.00718410      -0.05988631      -0.52482786       0.05781644       0.63108808
Si       1.41894358       1.32864561       1.33154475      -0.14523966       1.19797810       1.24124815
Si       0.03055906       2.71288409       2.76364233      -1.14505457       0.98740182      -0.12715838
Si       1.32275833       4.08635221       4.04990645       0.40065490       0.00157985       0.03180707
Si       2.69169667       0.00914533       2.73395539       0.28169417      -0.04756878      -0.44355885
Si       4.07007542       1.39745764       4.16235113       1.27694321      -0.06187588      -0.30394850
Si       2.76348876       2.75264109       0.04876362       0.08518481      -0.80602809      -0.65051158
Si       4.11186501       4.13065813       1.38032265      -0.22935499      -1.32930346      -0.37896600
8
Lattice="5.4702 0.0 0.0 0.0 5.4702 0.0 0.0 0.0 5.4702" Properties=species:S:1:pos:R:3:momenta:R:3 time_fs=220.0 temperature_K=240.2443014377177 pbc="T T T"
Si      -0.01562455      -0.00513813      -0.03117786      -0.38565808       0.04843945       1.00040141
Si       1.40422868       1.37380337       1.37490914      -0.68682747       1.33580800       1.20104024
Si      -0.01431092       2.74254333       2.75123565      -1.33614064       0.71354249      -0.53353222
Si       1.34506517       4.08802594       4.05971066       0.82474589       0.09948529       0.51084237
Si       2.70943149       0.00596008       2.72218729       0.72049365      -0.13022046      -0.22601002
Si       4.11510246       1.39178626       4.14297127       1.23885808      -0.26910115      -0.78267808
Si       2.76062300       2.72848321       0.02159114      -0.24153236      -0.58203853      -0.89231283
Si       4.10608466       4.08513594       1.36917271      -0.13393908      -1.21591508      -0.27775087
8
Lattice="5.4702 0.0 0.0 0.0 5.4702 0.0 0.0 0.0 5.4702" Properties=species:S:1:pos:R:3:momenta:R:3 time_fs=230.0 temperature_K=229.67109037991457 pbc="T T T"
Si      -0.02295764      -0.00419738       0.00861571      -0.00827454       0.00602367       1.24359810
Si       1.37315150       1.41837305       1.41328797      -1.03817511       1.15850892       0.96542412
Si      -0.05656283       2.76365067       2.73077342      -0.99494992       0.50913419      -0.56544321
Si       1.37629007       4.09345595       4.08333458       0.89906521       0.21436870       0.79655891
Si       2.74010129       0.00076798       2.71773768       0.99038092      -0.15287677      -0.04127945
Si       4.15298642       1.37835587       4.11020870       0.88473433      -0.50070331      -1.04038050
Si       2.74780864       2.71088503      -0.01231430      -0.46577302      -0.44637944      -1.01903614
Si       4.09978253       4.04930882       1.35895624      -0.26700786      -0.78807595      -0.33944182
8
Lattice="5.4702 0.0 0.0 0.0 5.4702 0.0 0.0 0.0 5.4702" Properties=species:S:1:pos:R:3:momenta:R:3 time_fs=240.0 temperature_K=166.9173926402058 pbc="T T T"
Si      -0.01561295      -0.00426902       0.05306802       0.42019676      -0.00020218       1.25390522
Si       1.33608605       1.45140822       1.44077789      -1.01085610       0.68969358       0.58711182
Si      -0.07963642       2.77945130       2.71624420      -0.29457329       0.41786329      -0.21309820
Si       1.40410784       4.10354425       4.11213803       0.64577806       0.37335989       0.80292318
Si       2.77508020      -0.00388080       2.71816828       0.95196676      -0.10475827       0.04774605
Si       4.17528861       1.35690675       4.07415532       0.38691361      -0.71781724      -0.96329792
Si       2.73007262       2.69543101      -0.04741141      -0.51826222      -0.46519889      -0.95242464
Si       4.08521404       4.03200828       1.34345968      -0.58116357      -0.19294017      -0.56286551
8
Lattice="5.4702 0.0 0.0 0.0 5.4702 0.0 0.0 0.0 5.4702" Properties=species:S:1:pos:R:3:momenta:R:3 time_fs=250.0 temperature_K=118.11567035826634 pbc="T T T"
Si       0.00485823      -0.00358805       0.09317652       0.71512613       0.04435310       0.99549131
Si       1.30704105       1.46472612       1.45353764      -0.59421175       0.06182117       0.14189891
Si      -0.07751238       2.79480753       2.71795803       0.38087129       0.48788893       0.31658561
Si       1.41920352       4.12023205       4.13657539       0.20055165       0.58426986       0.56172298
Si       2.80268945      -0.00639253       2.71976300       0.57308757      -0.04203537       0.02438644
Si       4.18120801       1.32937010       4.04644074      -0.01436800      -0.82836105      -0.57858287
Si       2.71340545       2.67667129      -0.07666159      -0.41472054      -0.62328454      -0.69433816
Si       4.05970667       4.03477348       1.31981026      -0.84633635       0.31534790      -0.76716421
8
Lattice="5.4702 0.0 0.0 0.0 5.4702 0.0 0.0 0.0 5.4702" Properties=species:S:1:pos:R:3:momenta:R:3 time_fs=260.0 temperature_K=108.98044897205685 pbc="T T T"
Si       0.03137730      -0.00125558       0.11999253       0.75206223       0.08134867       0.50667207
Si       1.29719367       1.45650834       1.45174477       0.04962510      -0.49911254      -0.21311216
Si      -0.05657684       2.81474652       2.73716300       0.75816653       0.65201635       0.74421576
Si       1.41820223       4.14380142       4.15010445      -0.23916182       0.74098131       0.20758522
Si       2.81213581      -0.00726187       2.71869174      -0.06160928      -0.01443448      -0.09823495
Si       4.17732117       1.30150450       4.03574650      -0.16131572      -0.72507566      -0.01894104
Si       2.70180036       2.65174179      -0.09497339      -0.24789251      -0.78719597      -0.35046468
Si       4.02914630       4.05081487       1.29213040      -0.84987453       0.55147233      -0.77772021
8
Lattice="5.4702 0.0 0.0 0.0 5.4702 0.0 0.0 0.0 5.4702" Properties=species:S:1:pos:R:3:momenta:R:3 time_fs=270.0 temperature_K=115.04785224045027 pbc="T T T"
Si       0.05399725       0.00135031       0.12723758       0.49529814       0.05728279      -0.09846459
Si       1.31034621       1.43318730       1.44158653       0.67990386      -0.77689354      -0.32094001
Si      -0.02828732       2.83904094       2.76652310       0.81047499       0.70109947       0.87654922
Si       1.40475547       4.16974068       4.15170316      -0.48681324       0.70246696      -0.09714678
Si       2.79789775      -0.00761915       2.71258699      -0.73469038      -0.00428722      -0.24510278
Si       4.17262990       1.28106999       4.04480518      -0.08099907      -0.41851986       0.51336460
Si       2.69568437       2.62366733      -0.10167644      -0.11031097      -0.77793784      -0.04615386
Si       4.00357638       4.07016260       1.26783391      -0.57286334       0.51678924      -0.58210579
8
Lattice="5.4702 0.0 0.0 0.0 5.4702 0.0 0.0 0.0 5.4702" Properties=species:S:1:pos:R:3:momenta:R:3 time_fs=280.0 temperature_K=106.10956389081201 pbc="T T T"
Si       0.06361043       0.00242122       0.11383995       0.03554475       0.00666270      -0.63971895
Si       1.34185768       1.40601974       1.43199634       1.06190763      -0.72835717      -0.20353565
Si      -0.00286859       2.86070965       2.79439240       0.60596916       0.49092159       0.66194208
Si       1.38734661       4.19024391       4.14500842      -0.46421294       0.43621507      -0.25865295
Si       2.76374307      -0.00725055       2.70268387      -1.15250530       0.02907084      -0.29565689
Si       4.17232564       1.27310650       4.06884484       0.05793701      -0.03489899       0.80754685
Si       2.69360760       2.60039897      -0.09922599      -0.01190324      -0.50844650       0.17217658
Si       3.99097757       4.08495056       1.25306016      -0.13273707       0.30883246      -0.24410105
8
Lattice="5.4702 0.0 0.0 0.0 5.4702 0.0 0.0 0.0 5.4702" Properties=species:S:1:pos:R:3:momenta:R:3 time_fs=290.0 temperature_K=79.25511506450029 pbc="T T T"
Si       0.05651430       0.00241233       0.08546154      -0.42207850       0.00369881      -0.92962314
Si       1.37938790       1.38490904       1.42760619       0.99865736      -0.44952331      -0.06333403
Si       0.01204840       2.87040813       2.80963603       0.22757480       0.02922779       0.17636800
Si       1.37481499       4.19847929       4.13542426      -0.22791615       0.01776644      -0.26611670
Si       2.72293154      -0.00575774       2.69404659      -1.09130609       0.04589674      -0.16532498
Si       4.17549928       1.27835349       4.09714035       0.09817634       0.32810398       0.74980564
Si       2.69488265       2.59080685      -0.09046311       0.08831421      -0.00914937       0.31939721
Si       3.99452093       4.09098860       1.25174816       0.32857803       0.03397893       0.17882799
8
Lattice="5.4702 0.0 0.0 0.0 5.4702 0.0 0.0 0.0 5.4702" Properties=species:S:1:pos:R:3:momenta:R:3 time_fs=300.0 temperature_K=79.59587495762106 pbc="T T T"
Si       0.03641119       0.00317632       0.05265114      -0.68466458       0.04095170      -0.89584535
Si       1.40603267       1.37599250       1.42559236       0.45832830      -0.05133512      -0.08509813
Si       0.01269303       2.86130140       2.80557246      -0.17950672      -0.55522230      -0.40701336
Si       1.37197588       4.19085738       4.12762697       0.05653377      -0.45524442      -0.16911029
Si       2.69328309      -0.00512588       2.69315507      -0.53513557      -0.02512209       0.13519910
Si       4.17714305       1.29553480       4.11752119      -0.03515201       0.64574118       0.37224589
Si       2.70009474       2.60111707      -0.07736313       0.21368262       0.60537855       0.42559909
Si       4.01296636       4.08774642       1.26584394       0.70591419      -0.20514748       0.62402305
8
Lattice="5.4702 0.0 0.0 0.0 5.4702 0.0 0.0 0.0 5.4702" Properties=species:S:1:pos:R:3:momenta:R:3 time_fs=310.0 temperature_K=155.63701743065508 pbc="T T T"
Si       0.01168442       0.00492843       0.02547027      -0.68891125       0.05069732      -0.63551553
Si       1.40890023       1.38075447       1.41980612      -0.29559746       0.29595958      -0.26106018
Si       0.00139647       2.83229926       2.78254030      -0.42540552      -1.07902383      -0.87429616
Si       1.37710443       4.16708082       4.12373649       0.20185798      -0.88873364      -0.06011144
Si       2.68826370      -0.00789990       2.70390157       0.25361331      -0.12553545       0.46805747
Si       4.17109596       1.32265718       4.12136021      -0.33260380       0.88673118      -0.15832545
Si       2.70995715       2.63263922      -0.06076472       0.34946164       1.17576388       0.52567416
Si       4.04219764       4.07814053       1.29454977       0.93758510      -0.31585904       0.99557714
8
Lattice="5.4702 0.0 0.0 0.0 5.4702 0.0 0.0 0.0 5.4702" Properties=species:S:1:pos:R:3:momenta:R:3 time_fs=320.0 temperature_K=250.5738779439886 pbc="T T T"
Si      -0.00959087       0.00620172       0.00860256      -0.50664473       0.01776943      -0.33895024
Si       1.38764420       1.39360826       1.40701053      -0.85863095       0.38355489      -0.46895418
Si      -0.01374297       2.78816182       2.74767806      -0.39159287      -1.40429338      -1.06435845
Si       1.38347228       4.13052479       4.12244024       0.12683962      -1.16438703      -0.03373603
Si       2.70908442      -0.01260010       2.72416507       0.88100083      -0.11977613       0.65720800
Si       4.15303974       1.35575138       4.10763806      -0.70040832       0.97298867      -0.58751501
Si       2.72428456       2.68097094      -0.04025916       0.46335627       1.54177030       0.65344390
Si       4.07640864       4.06798119       1.33332462       0.98608015      -0.22762675       1.18286200
8
Lattice="5.4702 0.0 0.0 0.0 5.4702 0.0 0.0 0.0 5.4702" Properties=species:S:1:pos:R:3:momenta:R:3 time_fs=330.0 temperature_K=259.0757682884226 pbc="T T T"
Si      -0.02306861       0.00613318       0.00027924      -0.26459732      -0.01959570      -0.16627611
Si       1.35428157       1.40366702       1.38710190      -0.96104768       0.14028121      -0.67016702
Si      -0.02318946       2.73720670       2.71214645      -0.12167291      -1.46092886      -0.90907287
Si       1.38408914       4.08884510       4.11988833      -0.10803697      -1.16665987      -0.13213817
Si       2.74477863      -0.01501302       2.74745174       1.07574745      -0.00963418       0.64105705
Si       4.12296220       1.38827820       4.08408826      -0.99427150       0.85393375      -0.69315795
Si       2.74167552       2.73667489      -0.01470045       0.51658558       1.58322723       0.80870454
Si       4.10907102       4.06480793       1.37434454       0.85729335       0.07937642       1.12105055
8
Lattice="5.4702 0.0 0.0 0.0 5.4702 0.0 0.0 0.0 5.4702" Properties=species:S:1:pos:R:3:momenta:R:3 time_fs=340.0 temperature_K=182.36118640309792 pbc="T T T"
Si      -0.02868330       0.00497737      -0.00526722      -0.07092313      -0.04574485      -0.18338188
Si       1.32645393       1.40069258       1.36009770      -0.55277901      -0.33367633      -0.87079145
Si      -0.02157282       2.68933304       2.68758318       0.20727148      -1.23154345      -0.45897662
Si       1.37560228       4.05240943       4.11221181      -0.36985163      -0.87434134      -0.31260380
Si       2.77840542      -0.01349490       2.76692177       0.76700260       0.08306714       0.44618695
Si       4.08592872       1.41386609       4.06387523      -1.08154366       0.59873000      -0.39937734
Si       2.75909872       2.78768059       0.01580607       0.45740680       1.28341976       0.92026748
Si       4.13536706       4.07513579       1.40937147       0.64341655       0.52008906       0.85867666
8
Lattice="5.4702 0.0 0.0 0.0 5.4702 0.0 0.0 0.0 5.4702" Properties=species:S:1:pos:R:3:momenta:R:3 time_fs=350.0 temperature_K=122.79686464923611 pbc="T T T"
Si      -0.02926781       0.00285553      -0.01460953       0.01825442      -0.07787264      -0.37568123
Si       1.31950885       1.38015041       1.32716854       0.18478455      -0.82182439      -0.98392875
Si      -0.00997129       2.65348565       2.68111316       0.43160233      -0.79815369       0.08086642
Si       1.35948019       4.02972921       4.09837466      -0.52490320      -0.40757239      -0.46324010
Si       2.79384463      -0.01038136       2.77724232       0.06955224       0.08000701       0.13139581
Si       4.05032691       1.43020503       4.05953981      -0.91384122       0.34331699       0.18032153
Si       2.77204568       2.82394690       0.04809696       0.26040351       0.77100523       0.89855253
Si       4.15463285       4.10060865       1.43367407       0.47414737       0.91109386       0.53171380
8
Lattice="5.4702 0.0 0.0 0.0 5.4702 0.0 0.0 0.0 5.4702" Properties=species:S:1:pos:R:3:momenta:R:3 time_fs=360.0 temperature_K=134.19943212192075 pbc="T T T"
Si      -0.02860689      -0.00055536      -0.03267684       0.00657638      -0.11562308      -0.66265309
Si       1.33934334       1.34571435       1.29408751       0.92054128      -1.10025512      -0.86116127
Si       0.00693330       2.63369553       2.69120684       0.51257389      -0.34665357       0.45136776
Si       1.34112012       4.02402371       4.08139286      -0.49109673       0.07168197      -0.48046660
Si       2.78189039      -0.00832376       2.77601874      -0.74404301       0.04220967      -0.19020473
Si       4.02415606       1.43838769       4.07676482      -0.56391023       0.12783849       0.78324312
Si       2.77607951       2.84152415       0.07671596      -0.03967654       0.24966839       0.71284300
Si       4.16968417       4.13613369       1.44709011       0.39903497       1.07113325       0.24703181
8
Lattice="5.4702 0.0 0.0 0.0 5.4702 0.0 0.0 0.0 5.4702" Properties=species:S:1:pos:R:3:momenta:R:3 time_fs=370.0 temperature_K=163.119343443181 pbc="T T T"
Si      -0.02920941      -0.00482570      -0.06033108      -0.03885016      -0.11867465      -0.89425309
Si       1.38021885       1.30660391       1.26976920       1.34353805      -1.08886234      -0.50150082
Si       0.02442356       2.62761670       2.70921787       0.46763213      -0.02991924       0.53029392
Si       1.32725788       4.03345802       4.06664900      -0.27711200       0.44165817      -0.33884166
Si       2.74443338      -0.00660458       2.76547461      -1.33392014       0.06981079      -0.38223116
Si       4.01128750       1.43906479       4.11133047      -0.17782240      -0.09191639       1.13332824
Si       2.76935185       2.84335452       0.09664141      -0.33206065      -0.10834442       0.41466888
Si       4.18283640       4.17193233       1.45184853       0.34859516       0.92624808       0.03853568
8
Lattice="5.4702 0.0 0.0 0.0 5.4702 0.0 0.0 0.0 5.4702" Properties=species:S:1:pos:R:3:momenta:R:3 time_fs=380.0 temperature_K=134.36232223049873 pbc="T T T"
Si      -0.03068828      -0.00807192      -0.09251596      -0.03120649      -0.05714621      -0.89495875
Si       1.42729403       1.27260604       1.25959119       1.25333307      -0.81340895      -0.09266247
Si       0.03838079       2.62960469       2.72554803       0.31520953       0.11797197       0.37491658
Si       1.32277168       4.05266282       4.05886925       0.02469204       0.61851255      -0.09722105
Si       2.69442559      -0.00294085       2.75174094      -1.42649648       0.13663222      -0.36439938
Si       4.01069398       1.43205032       4.15130482       0.12217065      -0.30056979       1.08184725
Si       2.75444654       2.83667658       0.10536138      -0.48994327      -0.23545471       0.08451396
Si       4.19327568       4.19801232       1.45070037       0.23224096       0.53346293      -0.09203614
8
Lattice="5.4702 0.0 0.0 0.0 5.4702 0.0 0.0 0.0 5.4702" Properties=species:S:1:pos:R:3:momenta:R:3 time_fs=390.0 temperature_K=53.086458892384265 pbc="T T T"
Si      -0.03025121      -0.00850899      -0.11896257       0.07187026       0.03022888      -0.55972436
Si       1.46142846       1.25253223       1.26129509       0.61653354      -0.29694094       0.15172874
Si       0.04573330       2.63450533       2.73428673       0.09994413       0.14955736       0.11938828
Si       1.32852247       4.07385054       4.05987446       0.28780706       0.55102882       0.14741938
Si       2.65184228       0.00200020       2.74268960      -0.91032919       0.12532277      -0.11823947
Si       4.01802197       1.41925777       4.18243393       0.26844821      -0.40592017       0.64151416
Si       2.73739123       2.82906955       0.10288553      -0.45210156      -0.17750140      -0.21783677
Si       4.19791150       4.20789337       1.44609722       0.01782755       0.02422467      -0.16424995
8
Lattice="5.4702 0.0 0.0 0.0 5.4702 0.0 0.0 0.0 5.4702" Properties=species:S:1:pos:R:3:momenta:R:3 time_fs=400.0 temperature_K=27.86008622569243 pbc="T T T"
Si      -0.02491570      -0.00645729      -0.12826952       0.23638070       0.07695372       0.06182819
Si       1.46652225       1.25365927       1.26793212      -0.34673846       0.36966818       0.21112509
Si       0.04537609       2.63968470       2.73415651      -0.11565186       0.14798910      -0.11575494
Si       1.34131271       4.08862664       4.06827917       0.41679679       0.26592836       0.31595204
Si       2.63600154       0.00465542       2.74488144       0.04672969       0.02066233       0.24193382
Si       4.02765609       1.40552090       4.19328261       0.26254522      -0.35585443      -0.04430247
Si       2.72484232       2.82496013       0.09087535      -0.24283596      -0.05984205      -0.45614896
Si       4.19380471       4.19995023       1.43946232      -0.25722610      -0.46550521      -0.21463274
8
Lattice="5.4702 0.0 0.0 0.0 5.4702 0.0 0.0 0.0 5.4702" Properties=species:S:1:pos:R:3:momenta:R:3 time_fs=410.0 temperature_K=118.77552466550472 pbc="T T T"
Si      -0.01421249      -0.00377975      -0.11373777       0.35796556       0.06887863       0.75871652
Si       1.43847378       1.27740072       1.27646588      -1.20087234       0.95394697       0.30089605
Si       0.03816924       2.64536494       2.72730844      -0.28754517       0.18934608      -0.25586642
Si       1.35583732       4.09153789       4.08061045       0.39016999      -0.09533519       0.36812374
Si       2.65513237       0.00403496       2.75775216       1.00671776      -0.03765597       0.44717132
Si       4.03579954       1.39540524       4.17926938       0.20813978      -0.21789101      -0.73469366
Si       2.72135858       2.82390359       0.07196537       0.04731184      -0.02526388      -0.60997697
Si       4.18004167       4.17673242       1.43096609      -0.52188742      -0.83602563      -0.27437058
8
Lattice="5.4702 0.0 0.0 0.0 5.4702 0.0 0.0 0.0 5.4702" Properties=species:S:1:pos:R:3:momenta:R:3 time_fs=420.0 temperature_K=222.29234202210972 pbc="T T T"
Si      -0.00165835      -0.00201660      -0.07743268       0.32970363       0.02719540       1.26745209
Si       1.38828772       1.31730924       1.29091922      -1.56845397       1.27955688       0.54746790
Si       0.02582756       2.65407609       2.71784014      -0.41184860       0.32839485      -0.26041021
Si       1.36736384       4.08346319       4.09258297       0.25773847      -0.32953149       0.29740552
Si       2.70143346       0.00318230       2.77243840       1.54668950      -0.00327594       0.34065944
Si       4.04345946       1.39004201       4.14496793       0.25806370      -0.09683472      -1.16358834
Si       2.72766700       2.82094440       0.04925769       0.29621852      -0.18123935      -0.67459331
Si       4.15821933       4.14359938       1.42002633      -0.70811125      -1.02426563      -0.35439309
8
Lattice="5.4702 0.0 0.0 0.0 5.4702 0.0 0.0 0.0 5.4702" Properties=species:S:1:pos:R:3:momenta:R:3 time_fs=430.0 temperature_K=230.87726707896888 pbc="T T T"
Si       0.00688456      -0.00223155      -0.02918513       0.13728299      -0.04443799       1.42908519
Si       1.33600216       1.36352530       1.31523028      -1.32229642       1.31459975       0.83273155
Si       0.00965862       2.66979088       2.71093893      -0.50960814       0.59091463      -0.10762046
Si       1.37355262       4.07164003       4.10039419       0.09785383      -0.29826556       0.14078716
Si       2.75611741       0.00345627       2.77857031       1.47518650       0.00325401      -0.02260427
Si       4.05607842       1.38808073       4.10305734       0.49402980      -0.02222917      -1.15363870
Si       2.74030617       2.80869251       0.02554278       0.39459745      -0.55030875      -0.67424700
Si       4.13200004       4.10764583       1.40605129      -0.76704602      -0.99352691      -0.44449347
8
Lattice="5.4702 0.0 0.0 0.0 5.4702 0.0 0.0 0.0 5.4702" Properties=species:S:1:pos:R:3:momenta:R:3 time_fs=440.0 temperature_K=178.18738391819173 pbc="T T T"
Si       0.00728075      -0.00528074       0.01849023      -0.11053215      -0.12754639       1.24727669
Si       1.30149483       1.40583343       1.34746264      -0.59336124       1.05594839       0.97575057
Si      -0.00946370       2.69658265       2.71187781      -0.57382080       0.95078106       0.17589819
Si       1.37469463       4.06558114       4.10240329      -0.02100321      -0.01494312      -0.01784976
Si       2.79818469       0.00222701       2.76961942       0.85930704      -0.08390541      -0.48938273
Si       4.07938844       1.38785357       4.06930906       0.84240737      -0.00631719      -0.71841488
Si       2.75286701       2.78120844       0.00235468       0.28981837      -1.02228000      -0.65038277
Si       4.10615336       4.07659451       1.38908287      -0.69281538      -0.75173733      -0.52289531
8
Lattice="5.4702 0.0 0.0 0.0 5.4702 0.0 0.0 0.0 5.4702" Properties=species:S:1:pos:R:3:momenta:R:3 time_fs=450.0 temperature_K=163.0652221397084 pbc="T T T"
Si       0.00034376      -0.01054255       0.05548238      -0.25841216      -0.15830736       0.84452178
Si       1.29625453       1.43454304       1.38111353       0.28533511       0.55732445       0.92118616
Si      -0.02919152       2.73607414       2.72332094      -0.52712908       1.28886715       0.46441005
Si       1.37308199       4.07199266       4.10021502      -0.05535057       0.38800575      -0.08632312
Si       2.81338028      -0.00213769       2.74564491      -0.00005765      -0.14710363      -0.84538235
Si       4.11387460       1.38585242       4.05515757       1.09567833      -0.14245501      -0.08378311
Si       2.75863537       2.73838445      -0.01989985       0.02065314      -1.39196321      -0.62066953
Si       4.08422100       4.05643352       1.36956549      -0.56071710      -0.39436813      -0.59395988
8
Lattice="5.4702 0.0 0.0 0.0 5.4702 0.0 0.0 0.0 5.4702" Properties=species:S:1:pos:R:3:momenta:R:3 time_fs=460.0 temperature_K=189.90052963106137 pbc="T T T"
Si      -0.00847002      -0.01510069       0.07681108      -0.20983987      -0.08458886       0.37613797
Si       1.31876600       1.44401367       1.41072567       0.93833667      -0.00942644       0.76454811
Si      -0.04419355       2.78433971       2.74253307      -0.30214872       1.42348263       0.60072854
Si       1.37187256       4.09228647       4.09794074      -0.00088146       0.75494586      -0.02193854
Si       2.79946408      -0.00626777       2.71376674      -0.75281116      -0.06408870      -0.92476793
Si       4.15298777       1.37556101       4.06219628       1.09380469      -0.47034247       0.44698314
Si       2.75373822       2.68716714      -0.04082207      -0.29749508      -1.48019854      -0.57120958
Si       4.06643494       4.04860046       1.34744850      -0.46896506      -0.06978349      -0.67048172
8
Lattice="5.4702 0.0 0.0 0.0 5.4702 0.0 0.0 0.0 5.4702" Properties=species:S:1:pos:R:3:momenta:R:3 time_fs=470.0 temperature_K=190.36924151500423 pbc="T T T"
Si      -0.01202857      -0.01558356       0.08265084       0.03426937       0.06197664      -0.01845373
Si       1.35639671       1.43551939       1.43430533       1.12426715      -0.43706905       0.57801110
Si      -0.04908010       2.83194241       2.76311111       0.02719898       1.24449209       0.54869192
Si       1.37365001       4.12302890       4.09992645       0.10719772       0.97198740       0.14827614
Si       2.76502489      -0.00571806       2.68452571      -1.13845294       0.09221842      -0.69999821
Si       4.18742448       1.35257019       4.08270893       0.83958157      -0.82786755       0.66350390
Si       2.73873504       2.63878540      -0.05959726      -0.53910842      -1.23543322      -0.50013865
Si       4.05047753       4.05005532       1.32296889      -0.45495342       0.12969527      -0.71989247
8
Lattice="5.4702 0.0 0.0 0.0 5.4702 0.0 0.0 0.0 5.4702" Properties=species:S:1:pos:R:3:momenta:R:3 time_fs=480.0 temperature_K=129.23484106179362 pbc="T T T"
Si      -0.00474043      -0.01104697       0.07789433       0.39089809       0.18529864      -0.21113652
Si       1.39104552       1.41702909       1.45031445       0.76963055      -0.55986667       0.31909922
Si      -0.04287346       2.86802373       2.77944404       0.30912030       0.77961324       0.36965226
Si       1.37936964       4.15782453       4.10874568       0.21532517       0.97831003       0.35518342
Si       2.72596421      -0.00121326       2.66766162      -1.00291931       0.13228661      -0.23069804
Si       4.20968684       1.32019496       4.10415023       0.41035057      -0.97173684       0.50157422
Si       2.71793248       2.60355812      -0.07570510      -0.61902125      -0.75025620      -0.41958216
Si       4.03421520       4.05622981       1.29809475      -0.47338413       0.20635120      -0.68409239
8
Lattice="5.4702 0.0 0.0 0.0 5.4702 0.0 0.0 0.0 5.4702" Properties=species:S:1:pos:R:3:momenta:R:3 time_fs=490.0 temperature_K=62.43316934296472 pbc="T T T"
Si       0.01492353      -0.00371969       0.07092508       0.71166189       0.21852119      -0.14862352
Si       1.40537779       1.40044864       1.45535604       0.00826791      -0.34067192      -0.04126712
Si      -0.02912510       2.88468061       2.78819487       0.45037026       0.16164459       0.12380844
Si       1.38813842       4.18849044       4.12418387       0.27509058       0.73069335       0.51178773
Si       2.70060635       0.00116775       2.66984997      -0.38550805      -0.02037709       0.35840391
Si       4.21501497       1.28850618       4.11433870      -0.11204501      -0.78725965       0.04803520
Si       2.69763160       2.58746824      -0.08877544      -0.51274068      -0.16477994      -0.32363687
Si       4.01803244       4.06355784       1.27652691      -0.43509689       0.20222947      -0.52850779
8
Lattice="5.4702 0.0 0.0 0.0 5.4702 0.0 0.0 0.0 5.4702" Properties=species:S:1:pos:R:3:momenta:R:3 time_fs=500.0 temperature_K=71.1078518854813 pbc="T T T"
Si       0.04227821       0.00356742       0.06917540       0.79639730       0.19451484       0.05381123
Si       1.39154810       1.39487023       1.44796104      -0.75796594       0.02043695      -0.35408894
Si      -0.01322247       2.87957439       2.78792035       0.43330871      -0.43637787      -0.13755313
Si       1.39776856       4.20601652       4.14301393       0.26323360       0.23617943       0.53795770
Si       2.70083300      -0.00282048       2.69112864       0.38608199      -0.18863633       0.80984171
Si       4.20241098       1.26796942       4.10682862      -0.58415408      -0.36079323      -0.46229896
Si       2.68368318       2.59161808      -0.09789038      -0.26875478       0.38567505      -0.18857885
Si       4.00530044       4.06980441       1.26246240      -0.26814679       0.14900117      -0.25909075
8
Lattice="5.4702 0.0 0.0 0.0 5.4702 0.0 0.0 0.0 5.4702" Properties=species:S:1:pos:R:3:momenta:R:3 time_fs=510.0 temperature_K=113.1873743971894 pbc="T T T"
Si       0.06610628       0.00979235       0.07367061       0.49990816       0.15861387       0.17152527
Si       1.35749405       1.40059007       1.43333935      -1.09405287       0.27907445      -0.43953675
Si      -0.00048230       2.85612200       2.77906399       0.27328919      -0.86759708      -0.35645353
Si       1.40571608       4.20350824       4.15975176       0.17921495      -0.38347850       0.38858327
Si       2.72443697      -0.01006282       2.72202919       0.89287384      -0.19965431       0.88651131
Si       4.17691348       1.26423172       4.08462347      -0.82253593       0.15238717      -0.75167751
Si       2.67943466       2.61265227      -0.10117835       0.02789243       0.78291756       0.01389368
Si       4.00098078       4.07376617       1.25929998       0.04341023       0.07773684       0.08715425
8
Lattice="5.4702 0.0 0.0 0.0 5.4702 0.0 0.0 0.0 5.4702" Properties=species:S:1:pos:R:3:momenta:R:3 time_fs=520.0 temperature_K=125.15173321765441 pbc="T T T"
Si       0.07346308       0.01415005       0.07833022      -0.11438652       0.07993286       0.05124952
Si       1.32188057       1.41237998       1.41949964      -0.85063283       0.36505156      -0.33390963
Si       0.00460280       2.82183945       2.76421299       0.00380041      -1.04708427      -0.47058746
Si       1.40940124       4.18034949       4.16820836       0.01713659      -0.90495494       0.07040551
Si       2.75756374      -0.01594978       2.74864051       0.91598692      -0.13953365       0.58205750
Si       4.14869188       1.27873096       4.05875429      -0.73914534       0.67463623      -0.66043888
Si       2.68546995       2.64361913      -0.09592572       0.31178412       0.94553956       0.30061614
Si       4.00952674       4.07548072       1.26887972       0.45545665       0.02641266       0.46060729
8
Lattice="5.4702 0.0 0.0 0.0 5.4702 0.0 0.0 0.0 5.4702" Properties=species:S:1:pos:R:3:momenta:R:3 time_fs=530.0 temperature_K=141.18742038580612 pbc="T T T"
Si       0.05749411       0.01482339       0.07467936      -0.78001403      -0.04259553      -0.28590256
Si       1.30301147       1.42375258       1.41002504      -0.18150505       0.24603202      -0.22259498
Si      -0.00058577       2.78602100       2.74782571      -0.29452168      -0.95949531      -0.44317274
Si       1.40591169       4.14356294       4.16347853      -0.22885375      -1.14444290      -0.34836389
Si       2.78325967      -0.02046997       2.76031925       0.49543801      -0.12681199       0.07260632
Si       4.12790871       1.31068197       4.04250226      -0.43027920       1.12771100      -0.22546270
Si       2.70070474       2.67610736      -0.07935684       0.54873718       0.88191546       0.65328100
Si       4.03289538       4.07612073       1.29112668       0.87099852       0.01768724       0.79960957
8
Lattice="5.4702 0.0 0.0 0.0 5.4702 0.0 0.0 0.0 5.4702" Properties=species:S:1:pos:R:3:momenta:R:3 time_fs=540.0 temperature_K=198.20695997694693 pbc="T T T"
Si       0.02187698       0.01175572       0.05751072      -1.19476601      -0.11648749      -0.69421093
Si       1.31034696       1.42679561       1.40237055       0.58720359      -0.10755623      -0.23870669
Si      -0.01452873       2.75694264       2.73442953      -0.46533168      -0.68524710      -0.31378788
Si       1.39302668       4.10382219       4.14422754      -0.50361426      -1.08471945      -0.73269489
Si       2.78995177      -0.02463377       2.75442485      -0.11941087      -0.09697834      -0.37854022
Si       4.11818254       1.35455849       4.04450759      -0.15492321       1.31947253       0.34011074
Si       2.72279220       2.70414549      -0.05037912       0.69345074       0.71937550       0.99119468
Si       4.06895160       4.07721364       1.32350834       1.15739168       0.05214059       1.02663520
8
Lattice="5.4702 0.0 0.0 0.0 5.4702 0.0 0.0 0.0 5.4702" Properties=species:S:1:pos:R:3:momenta:R:3 time_fs=550.0 temperature_K=240.41649094153667 pbc="T T T"
Si      -0.02107523       0.00791597       0.02701265      -1.18583968      -0.08865271      -1.02715627
Si       1.34126038       1.41468824       1.39211598       1.11779008      -0.58970183      -0.35759813
Si      -0.02964606       2.73807467       2.72590113      -0.34203776      -0.41323096      -0.17996445
Si       1.37176451       4.07009113       4.11450405      -0.68645760      -0.81732982      -0.92403086
Si       2.77595580      -0.02591120       2.73694060      -0.64829860       0.04105483      -0.56889144
Si       4.11411530       1.39818486       4.06501323      -0.12533436       1.10954869       0.79913779
Si       2.74741444       2.72709374      -0.01164347       0.68543825       0.61026987       1.19148388
Si       4.11081085       4.08046258       1.36075582       1.18473967       0.14804192       1.06701948
8
Lattice="5.4702 0.0 0.0 0.0 5.4702 0.0 0.0 0.0 5.4702" Properties=species:S:1:pos:R:3:momenta:R:3 time_fs=560.0 temperature_K=214.74170170801727 pbc="T T T"
Si      -0.05628099       0.00596469      -0.01218938      -0.76989523      -0.02689129      -1.17628375
Si       1.38327723       1.38653150       1.37700233       1.20282496      -0.98840100      -0.51056723
Si      -0.03488558       2.72552583       2.72129998       0.07903750      -0.35171426      -0.09045811
Si       1.34725488       4.04805729       4.08285967      -0.67903333      -0.42803104      -0.83838166
Si       2.74771093      -0.02131972       2.71830869      -0.91299411       0.21434957      -0.44602379
Si       4.10652520       1.42879515       4.09732925      -0.33915904       0.61459695       0.99555850
Si       2.76875661       2.74819561       0.03041477       0.50933539       0.61454710       1.17606508
Si       4.14824172       4.08884965       1.39557469       0.90988387       0.35154396       0.89009097
8
Lattice="5.4702 0.0 0.0 0.0 5.4702 0.0 0.0 0.0 5.4702" Properties=species:S:1:pos:R:3:momenta:R:3 time_fs=570.0 temperature_K=155.90179646550308 pbc="T T T"
Si      -0.07213314       0.00518626      -0.05237028      -0.11567770      -0.03421845      -1.07907188
Si       1.41994609       1.34870670       1.35596695       0.82494272      -1.12036944      -0.70053726
Si      -0.02324881       2.71022370       2.71906747       0.57299784      -0.56096606      -0.04626943
Si       1.32673584       4.04072660       4.05873934      -0.46206325       0.00902881      -0.50839981
Si       2.71610806      -0.01229322       2.70888985      -0.83658226       0.27346997      -0.05474070
Si       4.08928357       1.44096938       4.13069894      -0.64813823       0.09798079       0.85672215
Si       2.78160526       2.77097115       0.06825625       0.21024213       0.69420480       0.95888578
Si       4.17230313       4.10610944       1.42135148       0.45427875       0.64086958       0.57341115
8
Lattice="5.4702 0.0 0.0 0.0 5.4702 0.0 0.0 0.0 5.4702" Properties=species:S:1:pos:R:3:momenta:R:3 time_fs=580.0 temperature_K=131.7073951904715 pbc="T T T"
Si      -0.06439146       0.00263262      -0.08500495       0.53595440      -0.11781352      -0.75601192
Si       1.43746596       1.31182377       1.32765502       0.15075202      -0.94413080      -0.91448291
Si       0.00276797       2.68501467       2.71726436       0.86468988      -0.87633433      -0.06897486
Si       1.31665031       4.04789823       4.04868401      -0.09972540       0.37608752      -0.06084111
Si       2.69265301      -0.00403773       2.71618356      -0.46850211       0.18121739       0.47789299
Si       4.06202978       1.43751913       4.15401034      -0.88577727      -0.26370207       0.44399537
Si       2.78283209       2.79675235       0.09588643      -0.14255375       0.77342366       0.60373088
Si       4.18059235       4.13299697       1.43592123       0.04516222       0.87125216       0.27469156
8
Lattice="5.4702 0.0 0.0 0.0 5.4702 0.0 0.0 0.0 5.4702" Properties=species:S:1:pos:R:3:momenta:R:3 time_fs=590.0 temperature_K=144.91954724530237 pbc="T T T"
Si      -0.03770701      -0.00275152      -0.10386089       0.92667167      -0.17665471      -0.31443742
Si       1.43078331       1.28475464       1.29335831      -0.49854187      -0.58832997      -1.01023483
Si       0.03349141       2.65066545       2.71368346       0.84054585      -1.04667607      -0.13706459
Si       1.32002402       4.06433873       4.05385258       0.28576169       0.51421627       0.33355091
Si       2.68442854       0.00027527       2.74106915      -0.00746620       0.07873518       0.90256707
Si       4.02971801       1.42465745       4.16084584      -0.91979158      -0.44285826      -0.04644344
Si       2.77197479       2.82416215       0.10966494      -0.46573994       0.77514452       0.17825868
Si       4.17788691       4.16449781       1.44198661      -0.16143962       0.88642305       0.09380363
8
Lattice="5.4702 0.0 0.0 0.0 5.4702 0.0 0.0 0.0 5.4702" Properties=species:S:1:pos:R:3:momenta:R:3 time_fs=600.0 temperature_K=126.47715486151996 pbc="T T T"
Si      -0.00474973      -0.00856594      -0.10732230       0.87875041      -0.14114978       0.10015591
Si       1.40656308       1.27110949       1.26035644      -0.81417403      -0.18962117      -0.82290631
Si       0.05849347       2.61519274       2.70814688       0.55351887      -0.93043766      -0.16574378
Si       1.33553685       4.08020821       4.06973012       0.57742120       0.34461665       0.53469517
Si       2.69054455       0.00282013       2.77505567       0.32205325       0.08452189       0.96781567
Si       4.00085564       1.40849783       4.15245150      -0.68413265      -0.45209644      -0.39469233
Si       2.75167140       2.84938575       0.10843637      -0.66701158       0.64131958      -0.23924661
Si       4.17168473       4.19195178       1.44374532      -0.16642547       0.64284693       0.01992228
8
Lattice="5.4702 0.0 0.0 0.0 5.4702 0.0 0.0 0.0 5.4702" Properties=species:S:1:pos:R:3:momenta:R:3 time_fs=610.0 temperature_K=63.981995109256744 pbc="T T T"
Si       0.01871637      -0.01217253      -0.09863905       0.40518641      -0.06796234       0.36415710
Si       1.37905394       1.27166431       1.23927062      -0.68888680       0.22320361      -0.34233971
Si       0.07035900       2.58891753       2.70329103       0.10770823      -0.52993581      -0.09387936
Si       1.35821254       4.08607945       4.08834948       0.67962165      -0.02268002       0.48851780
Si       2.70415082       0.00672047       2.80367236       0.41450846       0.13470180       0.60211400
Si       3.98490893       1.39519884       4.13651080      -0.18989238      -0.27685215      -0.46651923
Si       2.72779584       2.86707331       0.09422718      -0.65608032       0.34061539      -0.54491307
Si       4.16740256       4.20711862       1.44391759      -0.07216525       0.19890952      -0.00713753
8
Lattice="5.4702 0.0 0.0 0.0 5.4702 0.0 0.0 0.0 5.4702" Properties=species:S:1:pos:R:3:momenta:R:3 time_fs=620.0 temperature_K=41.51462020297775 pbc="T T T"
Si       0.02137614      -0.01391860      -0.08407654      -0.25415086      -0.04141329       0.44205886
Si       1.36206763       1.28643954       1.23811206      -0.25245648       0.60749364       0.28194430
Si       0.06556518       2.58046282       2.70262060      -0.37675460       0.07045553       0.06526897
Si       1.37988321       4.07930527       4.10125645       0.51060488      -0.33332212       0.21717340
Si       2.71702115       0.01147713       2.81371773       0.29488736       0.12469992      -0.05511612
Si       3.98931056       1.39086387       4.12291970       0.44873227       0.04104549      -0.27776457
Si       2.70895054       2.87122525       0.07283903      -0.37607768      -0.12807196      -0.63722824
Si       4.16642560       4.20474471       1.44321098       0.00521512      -0.34088721      -0.03633659
8
Lattice="5.4702 0.0 0.0 0.0 5.4702 0.0 0.0 0.0 5.4702" Properties=species:S:1:pos:R:3:momenta:R:3 time_fs=630.0 temperature_K=114.32818848314658 pbc="T T T"
Si       0.00299534      -0.01538614      -0.06877003      -0.74169842      -0.04108172       0.43028556
Si       1.36157809       1.31230524       1.25812386       0.20119704       0.83491338       0.83477234
Si       0.04526051       2.59471366       2.70801055      -0.75319800       0.74416684       0.23721714
Si       1.39093647       4.06579860       4.10203930       0.09159125      -0.39139214      -0.17905139
Si       2.72395407       0.01496581       2.79978481       0.10522217       0.07532547      -0.71576794
Si       4.01522456       1.39754800       4.11812729       0.99556212       0.31354645       0.00039162
Si       2.70406446       2.85706420       0.05225007       0.11892553      -0.68272836      -0.51284334
Si       4.16658651       4.18359063       1.44103415      -0.01760171      -0.85274993      -0.09500399
8
Lattice="5.4702 0.0 0.0 0.0 5.4702 0.0 0.0 0.0 5.4702" Properties=species:S:1:pos:R:3:momenta:R:3 time_fs=640.0 temperature_K=213.7173860299032 pbc="T T T"
Si      -0.02570646      -0.01648087      -0.05354160      -0.82486360      -0.01722299       0.45258318
Si       1.37323554       1.34216941       1.29400154       0.41174159       0.83875211       1.17612900
Si       0.01581608       2.63147698       2.71837424      -0.87991419       1.32745420       0.33951549
Si       1.38573122       4.05478771       4.08962647      -0.37341213      -0.20668030      -0.49836853
Si       2.72548270       0.01706605       2.76683319       0.00606618       0.04905068      -1.10883365
Si       4.05525295       1.40990070       4.12173791       1.23105825       0.34384303       0.17919537
Si       2.71728421       2.82462895       0.03767263       0.61385313      -1.13861742      -0.32823179
Si       4.16350376       4.14705107       1.43589562      -0.18452922      -1.19657930      -0.21198907
8
Lattice="5.4702 0.0 0.0 0.0 5.4702 0.0 0.0 0.0 5.4702" Properties=species:S:1:pos:R:3:momenta:R:3 time_fs=650.0 temperature_K=237.55445934786306 pbc="T T T"
Si      -0.04987525      -0.01653471      -0.03618070      -0.49862615       0.01101513       0.55291737
Si       1.38652868       1.36933244       1.33740868       0.29714816       0.70214606       1.26088270
Si      -0.01263532       2.68433528       2.73072057      -0.69797271       1.63408323       0.35500021
Si       1.36734727       4.05295191       4.07040738      -0.62576056       0.11916586      -0.54576039
Si       2.72615204       0.01831402       2.72674783       0.05585629       0.01473928      -1.11706840
Si       4.09709784       1.41836331       4.12851534       1.10858315       0.10078898       0.17535216
Si       2.74401697       2.78045943       0.02793956       0.85652685      -1.33886460      -0.25354407
Si       4.15196777       4.10337832       1.42504135      -0.49575503      -1.24307394      -0.42777959
8
Lattice="5.4702 0.0 0.0 0.0 5.4702 0.0 0.0 0.0 5.4702" Properties=species:S:1:pos:R:3:momenta:R:3 time_fs=660.0 temperature_K=186.76347603853515 pbc="T T T"
Si      -0.05765207      -0.01606012      -0.01421540       0.07762631       0.01155101       0.70743420
Si       1.39124803       1.39101368       1.37904207      -0.05268651       0.53944589       1.07819309
Si      -0.03053906       2.74093867       2.74264684      -0.30935271       1.53119650       0.32014689
Si       1.34607637       4.06408859       4.05526056      -0.52985466       0.52721520      -0.27052394
Si       2.73061669       0.01731034       2.69295070       0.20918303      -0.08357144      -0.76448774
Si       4.13016273       1.41497427       4.13174812       0.76200272      -0.31184926      -0.02009147
Si       2.77259488       2.73413471       0.01832581       0.70877541      -1.27123910      -0.31506923
Si       4.12809243       4.06419984       1.40484130      -0.86569358      -0.94274879      -0.73560179
8
Lattice="5.4702 0.0 0.0 0.0 5.4702 0.0 0.0 0.0 5.4702" Properties=species:S:1:pos:R:3:momenta:R:3 time_fs=670.0 temperature_K=154.13204194651146 pbc="T T T"
Si      -0.04422142      -0.01578605       0.01310273       0.67290541       0.00826163       0.84417929
Si       1.38229292       1.40725932       1.41061717      -0.44889763       0.39015242       0.70826128
Si      -0.03458732       2.78730325       2.75254250       0.05504741       1.08003832       0.23580596
Si       1.33400140       4.08986174       4.05412088      -0.11983327       0.93376697       0.22715844
Si       2.74074097       0.01210576       2.67567967       0.35814463      -0.21027358      -0.20733383
Si       4.15016940       1.39612101       4.12558765       0.39282439      -0.76125069      -0.34288067
Si       2.78923380       2.69352949       0.00490171       0.19162307      -1.03247232      -0.46317530
Si       4.09297025       4.04020548       1.37404768      -1.10181400      -0.40822274      -1.00201517
8
Lattice="5.4702 0.0 0.0 0.0 5.4702 0.0 0.0 0.0 5.4702" Properties=species:S:1:pos:R:3:momenta:R:3 time_fs=680.0 temperature_K=178.27111429594666 pbc="T T T"
Si      -0.01308573      -0.01489347       0.04367861       1.05575865       0.05335408       0.88267842
Si       1.36175016       1.41808181       1.42826473      -0.68459552       0.22299578       0.31004017
Si      -0.02896410       2.81545154       2.75857931       0.23032013       0.53907292       0.10647787
Si       1.33920569       4.12730202       4.07125189       0.41855796       1.15933472       0.73343112
Si       2.75421184       0.00349212       2.67817279       0.38461129      -0.26303250       0.32741539
Si       4.15899310       1.36287535       4.10805316       0.13652432      -1.11141777      -0.64020093
Si       2.78380415       2.66256721      -0.01460590      -0.51054939      -0.73532006      -0.65656225
Si       4.05468489       4.03572341       1.33720541      -1.03062743       0.13501284      -1.06327978
8
Lattice="5.4702 0.0 0.0 0.0 5.4702 0.0 0.0 0.0 5.4702" Properties=species:S:1:pos:R:3:momenta:R:3 time_fs=690.0 temperature_K=196.16948230159758 pbc="T T T"
Si       0.02538770      -0.01145305       0.07317607       1.07945842       0.14763933       0.77899444
Si       1.33776004       1.42256952       1.43366503      -0.63670296       0.03390965       0.02627729
Si      -0.02070814       2.82686237       2.76030117       0.21599239       0.15059101       0.00292243
Si       1.36206413       4.16685935       4.10299881       0.85546365       1.03952079       1.03605598
Si       2.76565350      -0.00493761       2.69597694       0.24327823      -0.20332705       0.64107065
Si       4.16154276       1.32115204       4.08306055       0.03559855      -1.22444748      -0.74694946
Si       2.75466045       2.64198783      -0.04092859      -1.11616931      -0.44618376      -0.83985394
Si       4.02423957       4.04755954       1.30235003      -0.67691898       0.50229751      -0.89851739
8
Lattice="5.4702 0.0 0.0 0.0 5.4702 0.0 0.0 0.0 5.4702" Properties=species:S:1:pos:R:3:momenta:R:3 time_fs=700.0 temperature_K=151.46556152161145 pbc="T T T"
Si       0.05813805      -0.00472249       0.09638676       0.73933792       0.22845525       0.52246102
Si       1.32042536       1.42096572       1.43230810      -0.31650511      -0.11106620      -0.07042535
Si      -0.01516445       2.82863897       2.75973527       0.08892047      -0.01452545      -0.02166030
Si       1.39593140       4.19606283       4.14027029       1.02655426       0.58637013       1.04547227
Si       2.76980509      -0.01018046       2.71911649      -0.01881744      -0.09668516       0.62417368
Si       4.16322270       1.28113886       4.05897914       0.08298123      -1.00489851      -0.58505981
Si       2.70980644       2.63089040      -0.07208445      -1.37525520      -0.19795007      -0.91371306
Si       4.00843541       4.06780617       1.27588841      -0.22721613       0.61030002      -0.60124845
8
Lattice="5.4702 0.0 0.0 0.0 5.4702 0.0 0.0 0.0 5.4702" Properties=species:S:1:pos:R:3:momenta:R:3 time_fs=710.0 temperature_K=71.99486194587904 pbc="T T T"
Si       0.07437351       0.00362908       0.10808496       0.16847812       0.23507112       0.12817621
Si       1.31733883       1.41611013       1.43085709       0.14855605      -0.14691109       0.01131263
Si      -0.01485840       2.82769311       2.75950481      -0.06986433      -0.02173207       0.01445302
Si       1.42960277       4.20625580       4.17287967       0.83339034      -0.00309928       0.77604160
Si       2.76410821      -0.01207665       2.73603872      -0.29913556      -0.01931134       0.30386682
Si       4.16846952       1.25456600       4.04473021       0.22317894      -0.47243474      -0.20479182
Si       2.66409636       2.62709860      -0.10229682      -1.15486065      -0.04073338      -0.77036901
Si       4.00746919       4.08732392       1.26080137       0.15025709       0.46915078      -0.25868944
8
Lattice="5.4702 0.0 0.0 0.0 5.4702 0.0 0.0 0.0 5.4702" Properties=species:S:1:pos:R:3:momenta:R:3 time_fs=720.0 temperature_K=33.777338980746066 pbc="T T T"
Si       0.07002811       0.01099505       0.10481593      -0.39378815       0.18109367      -0.30952602
Si       1.33009719       1.41174532       1.43393350       0.55180637      -0.09418628       0.16270863
Si      -0.01946977       2.82777868       2.76084036      -0.17905768       0.02869997       0.05921357
Si       1.44984976       4.19743034       4.19184314       0.26995652      -0.46189113       0.27502628
Si       2.75028526      -0.01194023       2.73900280      -0.45946333       0.02370709      -0.13160774
Si       4.17823942       1.24977555       4.04516823       0.31143115       0.20293208       0.21872739
Si       2.63445190       2.62617014      -0.12277437      -0.47416707      -0.03958918      -0.35680431
Si       4.01711814       4.09864516       1.25777039       0.37328219       0.15923378       0.08226220
8
Lattice="5.4702 0.0 0.0 0.0 5.4702 0.0 0.0 0.0 5.4702" Properties=species:S:1:pos:R:3:momenta:R:3 time_fs=730.0 temperature_K=73.58153701012891 pbc="T T T"
Si       0.04957637       0.01626486       0.08777889      -0.72569072       0.12204733      -0.63395717
Si       1.35287384       1.40964809       1.44118261       0.69665162      -0.02880096       0.22600079
Si      -0.02602392       2.82941714       2.76326539      -0.17319443       0.05528265       0.07199762
Si       1.44604664       4.17691845       4.19058212      -0.49654148      -0.67490775      -0.35301415
Si       2.73466452      -0.01060551       2.72846570      -0.39291188       0.04851441      -0.43096488
Si       4.18778432       1.26782613       4.05818615       0.19293566       0.80124648       0.48802408
Si       2.63394224       2.62322288      -0.12499353       0.45903518      -0.12570633       0.24554544
Si       4.03173599       4.09790795       1.26613267       0.43971605      -0.19767583       0.38636826
8
Lattice="5.4702 0.0 0.0 0.0 5.4702 0.0 0.0 0.0 5.4702" Properties=species:S:1:pos:R:3:momenta:R:3 time_fs=740.0 temperature_K=155.04579602941766 pbc="T T T"
Si       0.02279891       0.01956558       0.06298380      -0.75937084       0.06475410      -0.74692400
Si       1.37505225       1.40937972       1.44760228       0.52327193       0.00724187       0.10921398
Si      -0.03008537       2.83059926       2.76526507      -0.04149482      -0.00810597       0.03203455
Si       1.41663198       4.15176855       4.16820502      -1.13419401      -0.75256939      -0.89050482
Si       2.72523521      -0.00905373       2.71219406      -0.12153912       0.03030007      -0.44908375
Si       4.18913069       1.30320747       4.07642728      -0.14354425       1.17688272       0.51420166
Si       2.66514484       2.61923648      -0.10592618       1.27175706      -0.05599656       0.82205595
Si       4.04669149       4.08589667       1.28384866       0.40511405      -0.46250684       0.60900644
8
Lattice="5.4702 0.0 0.0 0.0 5.4702 0.0 0.0 0.0 5.4702" Properties=species:S:1:pos:R:3:momenta:R:3 time_fs=750.0 temperature_K=201.90540533378228 pbc="T T T"
Si      -0.00103624       0.02054440       0.03772610      -0.57909895      -0.01255445      -0.67412338
Si       1.38709067       1.40958542       1.44688081       0.14817149      -0.00684747      -0.17204067
Si      -0.02829759       2.82708200       2.76462431       0.14204660      -0.22276350      -0.08431035
Si       1.37176142       4.12491870       4.13191450      -1.34497785      -0.76799175      -1.12113828
Si       2.72685371      -0.00913424       2.70020428       0.20788726      -0.04083635      -0.20016259
Si       4.17692679       1.34661917       4.09168714      -0.54890949       1.25006685       0.33027238
Si       2.71745110       2.62294998      -0.06976437       1.62359002       0.31703467       1.20866196
Si       4.05985013       4.06803457       1.30732723       0.35129093      -0.51610800       0.71284094
8
Lattice="5.4702 0.0 0.0 0.0 5.4702 0.0 0.0 0.0 5.4702" Properties=species:S:1:pos:R:3:momenta:R:3 time_fs=760.0 temperature_K=186.40826468913735 pbc="T T T"
Si      -0.01680270       0.01856639       0.01673844      -0.32000266      -0.09931087      -0.52281845
Si       1.38555252       1.40782515       1.43466452      -0.21663472      -0.11279162      -0.53048071
Si      -0.02104044       2.81287408       2.75813897       0.25147627      -0.61764121      -0.30368142
Si       1.32874168       4.09976837       4.09449118      -1.03120547      -0.63741024      -0.95202673
Si       2.73826921      -0.01187153       2.69978017       0.40998752      -0.10821424       0.18372378
Si       4.15214419       1.38672868       4.09825121      -0.83700945       0.99063555       0.03812774
Si       2.77171899       2.64368401      -0.02398983       1.38166564       0.87929752       1.36984983
Si       4.07201655       4.05302485       1.33252533       0.36172288      -0.29456489       0.71730596
8
Lattice="5.4702 0.0 0.0 0.0 5.4702 0.0 0.0 0.0 5.4702" Properties=species:S:1:pos:R:3:momenta:R:3 time_fs=770.0 temperature_K=161.51360990896399 pbc="T T T"
Si      -0.02383040       0.01390216       0.00083160      -0.09415886      -0.16056346      -0.39745048
Si       1.37418447       1.40035489       1.41012403      -0.39245614      -0.33092491      -0.85905223
Si      -0.01224809       2.78275877       2.74273723       0.23466965      -1.10226246      -0.57267126
Si       1.30419920       4.08252880       4.06920317      -0.33245926      -0.32710632      -0.45642194
Si       2.75264465      -0.01584831       2.71260859       0.36911035      -0.10473978       0.53089383
Si       4.12076080       1.41309040       4.09487253      -0.92587714       0.49356547      -0.20873470
Si       2.80824269       2.68332137       0.02291684       0.64368735       1.34585041       1.25974502
Si       4.08664667       4.05049194       1.35730601       0.49748406       0.18618105       0.70369177
8
Lattice="5.4702 0.0 0.0 0.0 5.4702 0.0 0.0 0.0 5.4702" Properties=species:S:1:pos:R:3:momenta:R:3 time_fs=780.0 temperature_K=181.73163610278695 pbc="T T T"
Si      -0.02448743       0.00789009      -0.01201257       0.03899949      -0.17491222      -0.35201396
Si       1.36110224       1.38398235       1.37604254      -0.31427759      -0.60734642      -1.06329280
Si      -0.00498626       2.73752182       2.71963514       0.18639620      -1.43835457      -0.71021524
Si       1.30606403       4.07691831       4.06343766       0.41773915      -0.01471315       0.11495708
Si       2.76145151      -0.01831989       2.73493182       0.10457054      -0.02742987       0.70951651
Si       4.08911240       1.42112109       4.08606826      -0.86485925      -0.01603472      -0.25174582
Si       2.81436447       2.73400563       0.06036821      -0.29651043       1.49450122       0.83458719
Si       4.10797904       4.06748061       1.38212893       0.72794190       0.78428974       0.71820705
8
Lattice="5.4702 0.0 0.0 0.0 5.4702 0.0 0.0 0.0 5.4702" Properties=species:S:1:pos:R:3:momenta:R:3 time_fs=790.0 temperature_K=216.59847652356842 pbc="T T T"
Si      -0.02227888       0.00218630      -0.02480474       0.07238334      -0.14558314      -0.39321294
Si       1.35458229       1.35836549       1.33784233      -0.03400732      -0.84122288      -1.08844136
Si       0.00154158       2.68616886       2.69615931       0.19792674      -1.43691759      -0.58857925
Si       1.33041779       4.07909752       4.07519757       0.91559944       0.09960205       0.51605080
Si       2.75866070      -0.01742227       2.75945392      -0.27035982       0.07990967       0.65138880
Si       4.06137266       1.41423166       4.08024122      -0.70741327      -0.33581116      -0.04410332
Si       2.78950594       2.78449814       0.07934293      -1.06654978       1.35692281       0.24639102
Si       4.13679791       4.10347430       1.40716747       0.89242068       1.22310025       0.70050626
8
Lattice="5.4702 0.0 0.0 0.0 5.4702 0.0 0.0 0.0 5.4702" Properties=species:S:1:pos:R:3:momenta:R:3 time_fs=800.0 temperature_K=200.14180974645114 pbc="T T T"
Si      -0.02020277      -0.00209809      -0.04034402       0.03965736      -0.09954239      -0.50387365
Si       1.35959576       1.32677862       1.30215521       0.32031396      -0.93523566      -0.92272459
Si       0.00932919       2.64070912       2.68081969       0.24954649      -1.12106377      -0.26703689
Si       1.36527865       4.08159265       4.09621014       1.00010392       0.02258070       0.63222481
Si       2.74302712      -0.01282044       2.77788954      -0.60386314       0.18060657       0.37311638
Si       4.04042360       1.40075731       4.08477784      -0.48305038      -0.39068925       0.31547079
Si       2.74538436       2.82708805       0.07904942      -1.35887845       1.05581386      -0.22012815
Si       4.16776410       4.14859278       1.43004218       0.83617024       1.28752993       0.59295129
8
Lattice="5.4702 0.0 0.0 0.0 5.4702 0.0 0.0 0.0 5.4702" Properties=species:S:1:pos:R:3:momenta:R:3 time_fs=810.0 temperature_K=120.22618275194719 pbc="T T T"
Si      -0.01962045      -0.00495396      -0.06017212      -0.00340628      -0.06806801      -0.62267162
Si       1.37601869       1.29536561       1.27497625       0.59196670      -0.82303294      -0.61429914
Si       0.01892802       2.60976350       2.67811163       0.29623568      -0.63141624       0.11028187
Si       1.39474717       4.08040636       4.11536041       0.60677598      -0.07890408       0.40114013
Si       2.71855550      -0.00500689       2.78433504      -0.75551631       0.26249092      -0.00799935
Si       4.02766164       1.38954611       4.10206004      -0.25289443      -0.22064695       0.65374188
Si       2.70164966       2.85649405       0.06803027      -1.04033518       0.59414899      -0.34154985
Si       4.19265978       4.18898522       1.44789848       0.55717384       0.96542831       0.42135608
8
Lattice="5.4702 0.0 0.0 0.0 5.4702 0.0 0.0 0.0 5.4702" Properties=species:S:1:pos:R:3:momenta:R:3 time_fs=820.0 temperature_K=51.99330691265443 pbc="T T T"
Si      -0.02002758      -0.00719298      -0.08262095      -0.01237874      -0.06433561      -0.63184395
Si       1.39841197       1.27178106       1.25975162       0.64341885      -0.49261787      -0.25747524
Si       0.02972388       2.59701025       2.68783168       0.31451160      -0.10049902       0.42885898
Si       1.40345208       4.07731469       4.12045190      -0.14228530      -0.08336682      -0.14728213
Si       2.69332834       0.00516541       2.77813026      -0.63995959       0.31107766      -0.32149429
Si       4.02188353       1.38669797       4.12825877      -0.09320678       0.06711856       0.80198559
Si       2.67850068       2.86670034       0.05957893      -0.22747601      -0.02432635      -0.09561459
Si       4.20532709       4.21312326       1.45921777       0.15737596       0.38694944       0.22286563
8
Lattice="5.4702 0.0 0.0 0.0 5.4702 0.0 0.0 0.0 5.4702" Properties=species:S:1:pos:R:3:momenta:R:3 time_fs=830.0 temperature_K=70.30886479978362 pbc="T T T"
Si      -0.02005024      -0.00964113      -0.10185534       0.01432276      -0.07617050      -0.42912719
Si       1.41773201       1.26266152       1.25636167       0.41619600      -0.01296737       0.05000925
Si       0.04026680       2.60196816       2.70660068       0.27504542       0.36490385       0.61795030
Si       1.38530030       4.07459951       4.10467110      -0.84732205      -0.08540189      -0.72670214
Si       2.67675295       0.01595239       2.76424293      -0.27385378       0.29136022      -0.43345189
Si       4.02018881       1.39412900       4.15494459      -0.01180614       0.34509231       0.67787388
Si       2.68671926       2.85572572       0.06234744       0.66883797      -0.56165502       0.23627590
Si       4.20369010       4.21520483       1.46328692      -0.24142017      -0.26516159       0.00717190
8
Lattice="5.4702 0.0 0.0 0.0 5.4702 0.0 0.0 0.0 5.4702" Properties=species:S:1:pos:R:3:momenta:R:3 time_fs=840.0 temperature_K=122.64774580075354 pbc="T T T"
Si      -0.01911841      -0.01241020      -0.11024789       0.03325905      -0.07919259      -0.02517090
Si       1.42503645       1.27123052       1.26230501      -0.02080830       0.49696195       0.27936732
Si       0.04769544       2.62065860       2.72887458       0.12629454       0.66915636       0.61917992
Si       1.34959674       4.07029261       4.07335940      -1.09859502      -0.16649808      -0.99371697
Si       2.67557061       0.02450290       2.75033358       0.21019036       0.18413785      -0.33320244
Si       4.02114434       1.40920201       4.17282961       0.07763984       0.48336058       0.31154987
Si       2.72105100       2.83144541       0.07351392       1.21165467      -0.76417708       0.35688857
Si       4.18962383       4.19567817       1.45963180      -0.53963514      -0.82374898      -0.21489539
8
Lattice="5.4702 0.0 0.0 0.0 5.4702 0.0 0.0 0.0 5.4702" Properties=species:S:1:pos:R:3:momenta:R:3 time_fs=850.0 temperature_K=139.6426465831153 pbc="T T T"
Si      -0.01825461      -0.01498804      -0.10272683       0.00891065      -0.06659402       0.45447618
Si       1.41593352       1.29626069       1.27556610      -0.48689303       0.90788480       0.47932021
Si       0.04721377       2.64595265       2.74709905      -0.18171475       0.73385580       0.38133615
Si       1.31520243       4.06390416       4.04038585      -0.77852363      -0.16640452      -0.81683575
Si       2.69055998       0.02821446       2.74206818       0.61883672       0.02487912      -0.13654760
Si       4.02690618       1.42515050       4.17516052       0.27379294       0.38532709      -0.18861660
Si       2.76516089       2.80589873       0.08441009       1.21817547      -0.66111746       0.23023063
Si       4.16787784       4.16020685       1.44863704      -0.67258436      -1.15783082      -0.40336323
8
Lattice="5.4702 0.0 0.0 0.0 5.4702 0.0 0.0 0.0 5.4702" Properties=species:S:1:pos:R:3:momenta:R:3 time_fs=860.0 temperature_K=138.39775523846663 pbc="T T T"
Si      -0.01875891      -0.01705272      -0.07935407      -0.03685564      -0.05185320       0.85928630
Si       1.39292158       1.33238087       1.29597391      -0.78931855       1.11782830       0.68784507
Si       0.03359195       2.66941690       2.75317796      -0.60191439       0.58520431      -0.05246478
Si       1.29999987       4.06141388       4.02079864      -0.04789200       0.05913780      -0.25380553
Si       2.71619541       0.02640907       2.74016976       0.80283342      -0.12111052       0.01011556
Si       4.04152902       1.43338751       4.15996312       0.57101488       0.05362129      -0.65928721
Si       2.80030779       2.78621248       0.08738644       0.71815585      -0.47077723      -0.09045463
Si       4.14481330       4.11843200       1.43248424      -0.61602357      -1.17205075      -0.50123478
8
Lattice="5.4702 0.0 0.0 0.0 5.4702 0.0 0.0 0.0 5.4702" Properties=species:S:1:pos:R:3:momenta:R:3 time_fs=870.0 temperature_K=168.07235576695194 pbc="T T T"
Si      -0.02040119      -0.01855484      -0.04461257      -0.04577329      -0.03100563       1.09512115
Si       1.36385314       1.37143635       1.32323911      -0.82618055       1.06976768       0.85677487
Si       0.00644556       2.68691059       2.74385361      -0.90670930       0.43843958      -0.44835544
Si       1.31244656       4.06910514       4.02428820       0.73404255       0.37264878       0.44992937
Si       2.74366565       0.02041842       2.74123513       0.72765849      -0.20999728       0.02743701
Si       4.06650167       1.42749221       4.13163243       0.83816764      -0.39857750      -0.91015009
Si       2.81170783       2.77153928       0.07611959      -0.09429910      -0.39563274      -0.57621316
Si       4.12638078       4.08225285       1.41484450      -0.42690643      -0.84564290      -0.49454370
8
Lattice="5.4702 0.0 0.0 0.0 5.4702 0.0 0.0 0.0 5.4702" Properties=species:S:1:pos:R:3:momenta:R:3 time_fs=880.0 temperature_K=211.0553505252952 pbc="T T T"
Si      -0.02092548      -0.01886260      -0.00505559       0.03291104       0.01973137       1.13384677
Si       1.33817459       1.40410209       1.35436627      -0.60417696       0.75840319       0.89581739
Si      -0.02568432       2.70259231       2.72542165      -0.86445596       0.49703423      -0.54233605
Si       1.34776114       4.08577359       4.05047533       1.21559205       0.54878647       1.00479128
Si       2.76480782       0.01257662       2.74068011       0.45723496      -0.22607914      -0.07458680
Si       4.09813378       1.40578119       4.10017774       0.93518881      -0.82797494      -0.83400423
Si       2.79384064       2.75693086       0.04654381      -0.89447230      -0.45527657      -1.10288429
Si       4.11449183       4.06170594       1.39799067      -0.27782165      -0.31462461      -0.48064407
8
Lattice="5.4702 0.0 0.0 0.0 5.4702 0.0 0.0 0.0 5.4702" Properties=species:S:1:pos:R:3:momenta:R:3 time_fs=890.0 temperature_K=221.4618185813789 pbc="T T T"
Si      -0.01693207      -0.01680930       0.03251519       0.21003198       0.10076091       0.98613159
Si       1.32357216       1.42248963       1.38399506      -0.21375181       0.27851269       0.77438462
Si      -0.04998251       2.72369944       2.71020951      -0.48153564       0.72509966      -0.27450103
Si       1.39204237       4.10569088       4.09086685       1.23446019       0.57564033       1.24284504
Si       2.77464955       0.00534233       2.73539777       0.10081878      -0.17959804      -0.22915091
Si       4.12949390       1.37133374       4.07637724       0.82749336      -1.10649495      -0.49733605
Si       2.75335077       2.73903278       0.00140653      -1.33817407      -0.57608637      -1.42181438
Si       4.10440584       4.05982050       1.37983184      -0.33934279       0.18216577      -0.58055889
8
Lattice="5.4702 0.0 0.0 0.0 5.4702 0.0 0.0 0.0 5.4702" Properties=species:S:1:pos:R:3:momenta:R:3 time_fs=900.0 temperature_K=190.23450766881618 pbc="T T T"
Si      -0.00560539      -0.01180202       0.06231904       0.43902749       0.18257632       0.70137113
Si       1.32347263       1.42378345       1.40736506       0.19790063      -0.18373097       0.55430647
Si      -0.05769947       2.75333674       2.70875753       0.04471600       0.95770375       0.20840207
Si       1.42858753       4.12601791       4.13270525       0.78343452       0.59863174       1.08059873
Si       2.77214237       0.00034279       2.72505454      -0.23187849      -0.10486813      -0.34961781
Si       4.15442076       1.33137573       4.06617257       0.58352208      -1.13060549      -0.09249928
Si       2.70672634       2.71575108      -0.04805175      -1.23302913      -0.77414672      -1.33183477
Si       4.08855523       4.07179431       1.35627775      -0.58369310       0.45443950      -0.77072654
8
Lattice="5.4702 0.0 0.0 0.0 5.4702 0.0 0.0 0.0 5.4702" Properties=species:S:1:pos:R:3:momenta:R:3 time_fs=910.0 temperature_K=155.35526326035745 pbc="T T T"
Si       0.01319024      -0.00444951       0.08093174       0.61719016       0.22967964       0.36200868
Si       1.33589927       1.41210939       1.42287448       0.48149501      -0.43766306       0.34108200
Si      -0.04773285       2.78935270       2.72453659       0.49817703       1.07745904       0.67131944
Si       1.44315701       4.14853276       4.16235603       0.02372465       0.69334820       0.57445877
Si       2.75979623      -0.00211440       2.71214192      -0.44786984      -0.04027249      -0.36856291
Si       4.16991509       1.29550043       4.06854524       0.30426459      -0.87874033       0.19892072
Si       2.67265357       2.68364227      -0.08731896      -0.65994617      -1.06749739      -0.86912605
Si       4.06372144       4.08802636       1.32653295      -0.81703542       0.42368640      -0.91010067
8
Lattice="5.4702 0.0 0.0 0.0 5.4702 0.0 0.0 0.0 5.4702" Properties=species:S:1:pos:R:3:momenta:R:3 time_fs=920.0 temperature_K=139.53425915251256 pbc="T T T"
Si       0.03563162       0.00365080       0.08815419       0.63024901       0.22545678       0.06568501
Si       1.35462812       1.39661452       1.43203787       0.55089499      -0.40007313       0.19581514
Si      -0.02544320       2.82677411       2.75316225       0.73131823       1.03159121       0.91818683
Si       1.43086812       4.17328775       4.17189885      -0.68329207       0.68230957      -0.01725261
Si       2.74297666      -0.00296435       2.70074289      -0.47967158      -0.01755889      -0.26259120
Si       4.17621238       1.27220153       4.07776476       0.06793379      -0.43161380       0.29384576
Si       2.66213657       2.64249470      -0.10760384       0.04907507      -1.23808917      -0.29797947
Si       4.03358971       4.09854095       1.29444303      -0.86650745       0.14797743      -0.89570945
8
Lattice="5.4702 0.0 0.0 0.0 5.4702 0.0 0.0 0.0 5.4702" Properties=species:S:1:pos:R:3:momenta:R:3 time_fs=930.0 temperature_K=105.18927787205278 pbc="T T T"
Si       0.05450278       0.01093066       0.08685765       0.40885500       0.18813985      -0.11848934
Si       1.37189331       1.38696516       1.43740653       0.40463629      -0.12147279       0.12161906
Si      -0.00002977       2.85915151       2.78503205       0.66948752       0.78259335       0.84653210
Si       1.40006622       4.19285385       4.16322164      -0.99513799       0.39097372      -0.43687930
Si       2.72857355      -0.00407149       2.69500966      -0.31423735      -0.05630819      -0.05217411
Si       4.17578681       1.26596955       4.08688812      -0.07273277       0.07233191       0.20021590
Si       2.67381951       2.60143379      -0.10970403       0.57098703      -1.04154570       0.14843080
Si       4.00598758       4.09736697       1.26588839      -0.67185773      -0.21471215      -0.70925511
8
Lattice="5.4702 0.0 0.0 0.0 5.4702 0.0 0.0 0.0 5.4702" Properties=species:S:1:pos:R:3:momenta:R:3 time_fs=940.0 temperature_K=56.580414698066654 pbc="T T T"
Si       0.06192184       0.01677984       0.08124024      -0.00685031       0.14692886      -0.18690515
Si       1.38132106       1.38919728       1.44114420       0.12161680       0.24824493       0.09895597
Si       0.01779649       2.87879998       2.80836176       0.30267140       0.30299534       0.43324499
Si       1.36712281       4.19870032       4.14467982      -0.81103925      -0.06315340      -0.57176150
Si       2.72248515      -0.00745438       2.69748173      -0.02291741      -0.14054823       0.19020283
Si       4.17258641       1.27628988       4.09026119      -0.08985946       0.49445318      -0.02210806
Si       2.69832636       2.57382150      -0.09923259       0.77467852      -0.49091187       0.42385385
Si       3.98903987       4.08446557       1.24666364      -0.26830029      -0.49800880      -0.36548294
8
Lattice="5.4702 0.0 0.0 0.0 5.4702 0.0 0.0 0.0 5.4702" Properties=species:S:1:pos:R:3:momenta:R:3 time_fs=950.0 temperature_K=57.94860687702964 pbc="T T T"
Si       0.05353877       0.02120655       0.07443507      -0.46337370       0.10518947      -0.19976210
Si       1.38029472       1.40311275       1.44463102      -0.17107564       0.51492511       0.10115578
Si       0.01875470       2.87836893       2.81238222      -0.26272999      -0.33941160      -0.22743247
Si       1.34746489       4.18919321       4.12669538      -0.27829671      -0.45945031      -0.41376040
Si       2.72693025      -0.01370805       2.70743990       0.26576412      -0.20817041       0.35873547
Si       4.17057084       1.29851438       4.08492686      -0.01823755       0.74343650      -0.27872990
Si       2.72435750       2.56907722      -0.08174366       0.66737252       0.22943682       0.55301386
Si       3.98868833       4.06483503       1.24183320       0.26057696      -0.58595559       0.10677977
8
Lattice="5.4702 0.0 0.0 0.0 5.4702 0.0 0.0 0.0 5.4702" Properties=species:S:1:pos:R:3:momenta:R:3 time_fs=960.0 temperature_K=130.1441556216512 pbc="T T T"
Si       0.03115446       0.02404233       0.06704274      -0.78087658       0.05600765      -0.23023995
Si       1.37058791       1.42222691       1.44786747      -0.35957227       0.52844228       0.07192145
Si       0.00026948       2.85593317       2.79259369      -0.75396137      -0.90651897      -0.87483142
Si       1.34798461       4.16797133       4.11766521       0.28374009      -0.73822509      -0.09308168
Si       2.73974479      -0.02111261       2.72087700       0.44249327      -0.20015432       0.38458777
Si       4.17098210       1.32597816       4.07185421       0.02431350       0.79498646      -0.44182968
Si       2.74248955       2.58934611      -0.06213578       0.34587062       0.90700981       0.54674615
Si       4.00738712       4.04621460       1.25483544       0.79799274      -0.44154782       0.63672735
8
Lattice="5.4702 0.0 0.0 0.0 5.4702 0.0 0.0 0.0 5.4702" Properties=species:S:1:pos:R:3:momenta:R:3 time_fs=970.0 temperature_K=197.93733719642682 pbc="T T T"
Si       0.00192116       0.02513236       0.05773214      -0.84313846       0.00728991      -0.31051353
Si       1.35711873       1.43658414       1.44834224      -0.37973386       0.24542809      -0.06957155
Si      -0.02963754       2.81860752       2.75477720      -0.87862036      -1.16968130      -1.21943784
Si       1.36418074       4.13851646       4.11962639       0.58418033      -0.92925975       0.18233179
Si       2.75602675      -0.02672857       2.73288005       0.46109285      -0.10958860       0.28704231
Si       4.17032473       1.35211129       4.05649151      -0.09700032       0.67467535      -0.39577775
Si       2.74797343       2.63020068      -0.04462502      -0.02443133       1.38728930       0.44716852
Si       4.04269201       4.03617613       1.28537549       1.17765115      -0.10615300       1.07875805
8
Lattice="5.4702 0.0 0.0 0.0 5.4702 0.0 0.0 0.0 5.4702" Properties=species:S:1:pos:R:3:momenta:R:3 time_fs=980.0 temperature_K=193.71370115346375 pbc="T T T"
Si      -0.02451173       0.02459005       0.04487442      -0.62406086      -0.03898094      -0.42916725
Si       1.34617411       1.43673871       1.44112451      -0.21712198      -0.26243098      -0.36899652
Si      -0.05560353       2.77754155       2.71259974      -0.53137494      -1.14487985      -1.11295343
Si       1.38457713       4.10480956       4.12807977       0.52187325      -0.96042092       0.25900625
Si       2.77012848      -0.02830021       2.74048485       0.31950192       0.02157944       0.14892514
Si       4.16178600       1.37191054       4.04694284      -0.42003118       0.44776352      -0.11572911
Si       2.74241655       2.68299708      -0.03047495      -0.25591776       1.57650487       0.38106584
Si       4.08563299       4.04031271       1.32696882       1.20713155       0.36086486       1.23784908
8
Lattice="5.4702 0.0 0.0 0.0 5.4702 0.0 0.0 0.0 5.4702" Properties=species:S:1:pos:R:3:momenta:R:3 time_fs=990.0 temperature_K=159.98748617693934 pbc="T T T"
Si      -0.03930689       0.02226274       0.02749282      -0.19962001      -0.09724730      -0.56702848
Si       1.34352688       1.41755899       1.42122651       0.08001020      -0.82628319      -0.77681380
Si      -0.06282383       2.73969027       2.68197046       0.15112121      -1.01485338      -0.58177972
Si       1.39690911       4.07452968       4.13454751       0.13822979      -0.72298470       0.06526042
Si       2.77674801      -0.02540419       2.74381102       0.03901459       0.13800216       0.05309605
Si       4.13986360       1.38346915       4.05002805      -0.83277440       0.22381174       0.30234264
Si       2.73321513       2.73637420      -0.01596831      -0.22317520       1.41701050       0.48145389
Si       4.12246799       4.06211917       1.36749193       0.84719384       0.88254418       1.02346900
8
Lattice="5.4702 0.0 0.0 0.0 5.4702 0.0 0.0 0.0 5.4702" Properties=species:S:1:pos:R:3:momenta:R:3 time_fs=1000.0 temperature_K=187.90546387378754 pbc="T T T"
Si      -0.03801953       0.01757786       0.00511657       0.26282341      -0.17238143      -0.71246878
Si       1.35200576       1.38074199       1.38727610       0.39756967      -1.23659160      -1.14144411
Si      -0.04495889       2.70674631       2.67388630       0.83992348      -0.86360547       0.11650734
Si       1.39227523       4.05679846       4.13016303      -0.40892013      -0.27335184      -0.33464803
Si       2.77184039      -0.01914393       2.74510763      -0.32739554       0.21289821       0.03366658
Si       4.10479342       1.38880545       4.06784345      -1.13888720       0.10307154       0.70034033
Si       2.72943129       2.77877913       0.00498470       0.02783934       0.97761986       0.72704876
Si       4.14323233       4.10029474       1.39622223       0.34704697       1.25234074       0.61099790
8
Lattice="5.4702 0.0 0.0 0.0 5.4702 0.0 0.0 0.0 5.4702" Properties=species:S:1:pos:R:3:momenta:R:3 time_fs=1010.0 temperature_K=242.29117442531586 pbc="T T T"
Si      -0.02281840       0.01026015      -0.02215558       0.56411440      -0.24289473      -0.84119486
Si       1.37024616       1.33480195       1.34392737       0.62387391      -1.33009254      -1.29103361
Si      -0.00788411       2.67978016       2.68800850       1.20881452      -0.67345617       0.63979846
Si       1.36985533       4.05495934       4.11149345      -0.82425524       0.14074319      -0.70479332
Si       2.75395159      -0.01091730       2.74689278      -0.68359755       0.25287288       0.07616604
Si       4.06329526       1.39206574       4.09722197      -1.18306739       0.09875701       0.94632160
Si       2.73506276       2.80429288       0.03415413       0.27174897       0.49747163       0.91174039
Si       4.14889141       4.14535709       1.41105739       0.02236837       1.25659873       0.26299529
8
Lattice="5.4702 0.0 0.0 0.0 5.4702 0.0 0.0 0.0 5.4702" Properties=species:S:1:pos:R:3:momenta:R:3 time_fs=1020.0 temperature_K=212.46257485876973 pbc="T T T"
Si      -0.00214178       0.00098309      -0.05298835       0.56288462      -0.27888065      -0.90535039
Si       1.39391400       1.29188897       1.30037866       0.70188257      -1.06754070      -1.15275264
Si       0.03432695       2.65942710       2.71434356       1.13107237      -0.50308631       0.79968998
Si       1.33920809       4.06402248       4.08385366      -0.85360597       0.33723023      -0.82500782
Si       2.72561439      -0.00176797       2.75078639      -0.90340189       0.26545522       0.14943001
Si       4.02552568       1.39633081       4.13141318      -0.93239806       0.14749430       0.96808365
Si       2.74605443       2.81570412       0.06609002       0.31847125       0.19276994       0.87386838
Si       4.14809824       4.18401140       1.41672287      -0.02490488       0.90655798       0.09203883
8
Lattice="5.4702 0.0 0.0 0.0 5.4702 0.0 0.0 0.0 5.4702" Properties=species:S:1:pos:R:3:momenta:R:3 time_fs=1030.0 temperature_K=105.46345915523854 pbc="T T T"
Si       0.01304306      -0.00841343      -0.08385118       0.26458153      -0.24386756      -0.82940443
Si       1.41723148       1.26336417       1.26590900       0.59856733      -0.53019535      -0.79189197
Si       0.06670485       2.64318481       2.73958130       0.66783546      -0.44893525       0.58930078
Si       1.31502865       4.07609998       4.05717839      -0.47083788       0.32421258      -0.65795544
Si       2.69369397       0.00727220       2.75735498      -0.87297575       0.24605020       0.22250015
Si       4.00044898       1.40217149       4.16211498      -0.47881886       0.17954703       0.74944060
Si       2.75505019       2.82031835       0.09282044       0.17203539       0.10349456       0.62640942
Si       4.14939880       4.20660243       1.41949209       0.11961279       0.36969379       0.09160089
8
Lattice="5.4702 0.0 0.0 0.0 5.4702 0.0 0.0 0.0 5.4702" Properties=species:S:1:pos:R:3:momenta:R:3 time_fs=1040.0 temperature_K=30.596531204295808 pbc="T T T"
Si       0.01462308      -0.01508221      -0.10866848      -0.18090456      -0.12635385      -0.55598295
Si       1.43346145       1.25594043       1.24603612       0.29792489       0.10424256      -0.33919387
Si       0.07866565       2.62688221       2.75283724       0.00335833      -0.48705862       0.14741251
Si       1.30881884       4.08491565       4.04003839       0.12657526       0.15584848      -0.30221824
Si       2.66806579       0.01518342       2.76574961      -0.54447213       0.20526667       0.24380101
Si       3.99271699       1.40832403       4.18163907       0.03313505       0.16471059       0.34414218
Si       2.75722558       2.82473083       0.10843690      -0.04850160       0.16691004       0.25159223
Si       4.15702262       4.20970564       1.42453115       0.31288476      -0.18356588       0.21044713
8
Lattice="5.4702 0.0 0.0 0.0 5.4702 0.0 0.0 0.0 5.4702" Properties=species:S:1:pos:R:3:momenta:R:3 time_fs=1050.0 temperature_K=51.98984935136753 pbc="T T T"
Si       0.00127286      -0.01699548      -0.12077154      -0.55194857       0.01151211      -0.11594623
Si       1.43631102       1.26944317       1.24208305      -0.15101449       0.63725287       0.10659084
Si       0.06763543       2.61000300       2.74974405      -0.60312284      -0.45050587      -0.30899549
Si       1.32276723       4.08551711       4.03661082       0.63138304      -0.13655425       0.10351348
Si       2.65830438       0.02173927       2.77318782       0.01174238       0.17262031       0.16198189
Si       4.00163572       1.41333481       4.18536299       0.44940114       0.11945132      -0.13145905
Si       2.75229891       2.83262327       0.10976185      -0.21565116       0.28354427      -0.17907986
Si       4.17037444       4.19493485       1.43462097       0.42921050      -0.63732075       0.36339443
8
Lattice="5.4702 0.0 0.0 0.0 5.4702 0.0 0.0 0.0 5.4702" Properties=species:S:1:pos:R:3:momenta:R:3 time_fs=1060.0 temperature_K=124.846781823406 pbc="T T T"
Si      -0.02100030      -0.01523778      -0.11607670      -0.67136462       0.06939189       0.38456785
Si       1.42269221       1.29784721       1.25273704      -0.61608748       0.94433903       0.48701568
Si       0.03968475       2.59782032       2.73317425      -0.93858898      -0.20934794      -0.60078784
Si       1.34923345       4.07525263       4.04636642       0.82087269      -0.43456542       0.43045133
Si       2.66941130       0.02736102       2.77584972       0.61155026       0.14686524      -0.02308809
Si       4.02174092       1.41664878       4.17320994       0.66169329       0.07022373      -0.54196482
Si       2.74372291       2.84372762       0.09629329      -0.24878852       0.32770960      -0.57473301
Si       4.18511476       4.16718020       1.44904605       0.38071335      -0.91461613       0.43853889
8
Lattice="5.4702 0.0 0.0 0.0 5.4702 0.0 0.0 0.0 5.4702" Properties=species:S:1:pos:R:3:momenta:R:3 time_fs=1070.0 temperature_K=163.6338265328301 pbc="T T T"
Si      -0.04223663      -0.01351301      -0.09449947      -0.49868021       0.01314846       0.83143418
Si       1.39506838       1.33252702       1.27467584      -0.92303491       0.99747045       0.74071031
Si       0.00616639       2.59747421       2.71078198      -0.91813126       0.21022172      -0.63050991
Si       1.37604081       4.05753011       4.06431686       0.65768010      -0.52777195       0.55219228
Si       2.69896636       0.03154844       2.77111192       1.03186778       0.08195016      -0.24768424
Si       4.04534508       1.41814129       4.14956320       0.65577972       0.01062365      -0.77234028
Si       2.73675078       2.85313611       0.07156031      -0.12393465       0.16654696      -0.79930365
Si       4.19449884       4.13375583       1.46308936       0.11845343      -0.95218945       0.32550131
8
Lattice="5.4702 0.0 0.0 0.0 5.4702 0.0 0.0 0.0 5.4702" Properties=species:S:1:pos:R:3:momenta:R:3 time_fs=1080.0 temperature_K=142.73973204815067 pbc="T T T"
Si      -0.05354870      -0.01490925      -0.05973098      -0.12744337      -0.09293911       1.12330569
Si       1.36163453       1.36495040       1.30241327      -0.93210704       0.82185124       0.81289650
Si      -0.02077081       2.61314508       2.69267797      -0.57748145       0.68392948      -0.35290856
Si       1.39213434       4.04244068       4.08173470       0.23079746      -0.27599697       0.40049978
Si       2.73761600       0.03229030       2.75891643       1.11479603      -0.04932563      -0.43962115
Si       4.06598543       1.41683215       4.12212823       0.51204248      -0.09639165      -0.75265439
Si       2.73657117       2.85212906       0.04356514       0.12764929      -0.26769439      -0.75718886
Si       4.19097805       4.10372158       1.46889525      -0.34825340      -0.72343296      -0.03432900
8
Lattice="5.4702 0.0 0.0 0.0 5.4702 0.0 0.0 0.0 5.4702" Properties=species:S:1:pos:R:3:momenta:R:3 time_fs=1090.0 temperature_K=136.36999732398448 pbc="T T T"
Si      -0.05064745      -0.01946137      -0.01860133       0.28800417      -0.15318303       1.18705874
Si       1.33374050       1.38800471       1.32946197      -0.61364003       0.47556370       0.71002393
Si      -0.03220284       2.64468855       2.68913551      -0.06653316       1.10689618       0.17870188
Si       1.39130746       4.04141374       4.09036976      -0.26767500       0.24271449       0.08625263
Si       2.77254420       0.02780451       2.74132087       0.82314141      -0.20393315      -0.54888710
Si       4.08111711       1.41058087       4.09966889       0.36367512      -0.27218343      -0.50020248
Si       2.74559925       2.83236447       0.02074859       0.36818283      -0.87172613      -0.53573006
Si       4.16914178       4.08520450       1.45849575      -0.89515534      -0.32414864      -0.57721754
8
Lattice="5.4702 0.0 0.0 0.0 5.4702 0.0 0.0 0.0 5.4702" Properties=species:S:1:pos:R:3:momenta:R:3 time_fs=1100.0 temperature_K=192.49418624732016 pbc="T T T"
Si      -0.03451601      -0.02446372       0.02044978       0.60903975      -0.11639468       1.00774929
Si       1.32114047       1.39759054       1.35122166      -0.08969867       0.07768137       0.53540019
Si      -0.02627587       2.68945530       2.70540931       0.37265029       1.43109413       0.72724093
Si       1.37577403       4.05952371       4.08887029      -0.56687775       0.77346260      -0.13741552
Si       2.79177847       0.01881275       2.72196105       0.24175559      -0.29214754      -0.53530746
Si       4.09272268       1.39721890       4.08841346       0.32417439      -0.49615765      -0.13987853
Si       2.75957142       2.79216194       0.00552703       0.37720668      -1.39130345      -0.35778412
Si       4.13040481       4.08030058       1.42874742      -1.26825026       0.01376521      -1.10000479
8
Lattice="5.4702 0.0 0.0 0.0 5.4702 0.0 0.0 0.0 5.4702" Properties=species:S:1:pos:R:3:momenta:R:3 time_fs=1110.0 temperature_K=240.83277072907703 pbc="T T T"
Si      -0.01028669      -0.02668824       0.04965576       0.73986888      -0.00171907       0.63941994
Si       1.32734690       1.39480698       1.36782671       0.42524090      -0.20492398       0.43567580
Si      -0.00943308       2.74247026       2.73656476       0.53395446       1.55404055       0.98667258
Si       1.35603256       4.09330467       4.08375189      -0.49746533       1.11994209      -0.11034276
Si       2.78833393       0.00880438       2.70548170      -0.43337667      -0.26096489      -0.38580465
Si       4.10552494       1.37594904       4.08913837       0.43008397      -0.71330219       0.15814979
Si       2.76820562       2.73842215      -0.00620168       0.07018646      -1.62620860      -0.33911430
Si       4.08487582       4.08353077       1.38438249      -1.26849267       0.13313610      -1.38465640
8
Lattice="5.4702 0.0 0.0 0.0 5.4702 0.0 0.0 0.0 5.4702" Properties=species:S:1:pos:R:3:momenta:R:3 time_fs=1120.0 temperature_K=223.90247022018295 pbc="T T T"
Si       0.01472278      -0.02419876       0.06453806       0.65791532       0.14678240       0.21726408
Si       1.34850693       1.38589052       1.38324577       0.73731089      -0.26540206       0.46414685
Si       0.00716088       2.79435002       2.76940040       0.36475023       1.35617294       0.82313635
Si       1.34485910       4.13506914       4.08385148      -0.09977614       1.22557226       0.14519203
Si       2.76348394       0.00143549       2.69609708      -0.93512375      -0.15604186      -0.14116099
Si       4.12379917       1.34821396       4.09730838       0.61860826      -0.85412976       0.27322188
Si       2.76250236       2.68232522      -0.01955031      -0.40336683      -1.52716400      -0.43614612
Si       4.04556484       4.08751440       1.33570912      -0.94031799       0.07421009      -1.34565407
8
Lattice="5.4702 0.0 0.0 0.0 5.4702 0.0 0.0 0.0 5.4702" Properties=species:S:1:pos:R:3:momenta:R:3 time_fs=1130.0 temperature_K=163.29112260066293 pbc="T T T"
Si       0.03401538      -0.01636629       0.06624305       0.42945729       0.29992747      -0.08729698
Si       1.37490517       1.37874647       1.40094189       0.70732025      -0.11265052       0.54773369
Si       0.01358188       2.83414305       2.79058824      -0.01514812       0.88965898       0.35874728
Si       1.35049733       4.17574698       4.09499840       0.41900717       1.04721460       0.49316649
Si       2.72792633      -0.00235182       2.69578810      -1.01193236      -0.07004405       0.11941367
Si       4.14816024       1.31785103       4.10575812       0.75234611      -0.85306500       0.17658146
Si       2.74102837       2.63489244      -0.03712597      -0.79020290      -1.14679161      -0.57087589
Si       4.02048529       4.08793814       1.29340816      -0.49084744      -0.05424987      -1.03746972
8
Lattice="5.4702 0.0 0.0 0.0 5.4702 0.0 0.0 0.0 5.4702" Properties=species:S:1:pos:R:3:momenta:R:3 time_fs=1140.0 temperature_K=101.10120174508299 pbc="T T T"
Si       0.04434393      -0.00354993       0.06119410       0.16465596       0.42313361      -0.15907906
Si       1.39360051       1.37960477       1.42099346       0.30796622       0.17580376       0.58490011
Si       0.00628057       2.85582639       2.79400993      -0.38200402       0.35613447      -0.14996353
Si       1.37227807       4.20432092       4.11746045       0.77902915       0.53079098       0.76736856
Si       2.69877240      -0.00427608       2.70375914      -0.57684357      -0.05097142       0.32077402
Si       4.17423408       1.29086205       4.10770074       0.70107066      -0.65455153      -0.08740994
Si       2.71048006       2.60408912      -0.05937322      -0.90276489      -0.59701409      -0.69468774
Si       4.01061038       4.08372277       1.26485539      -0.09110950      -0.18332579      -0.58190242
8
Lattice="5.4702 0.0 0.0 0.0 5.4702 0.0 0.0 0.0 5.4702" Properties=species:S:1:pos:R:3:momenta:R:3 time_fs=1150.0 temperature_K=78.67173339751143 pbc="T T T"
Si       0.04628998       0.01213418       0.05769091      -0.03761036       0.45285671      -0.01418180
Si       1.39412742       1.39122731       1.44076150      -0.28555435       0.47870958       0.53014378
Si      -0.01096463       2.86020080       2.78194957      -0.56700160      -0.08300115      -0.50402506
Si       1.40094262       4.21006036       4.14649776       0.79793337      -0.21842632       0.85540906
Si       2.69140199      -0.00641706       2.71679330       0.17988551      -0.07434932       0.40033232
Si       4.19456718       1.27438490       4.09870224       0.42794201      -0.26031348      -0.43049715
Si       2.68159549       2.59343177      -0.08467088      -0.69977034      -0.02301195      -0.72632776
Si       4.01263995       4.07557774       1.25287560       0.18417576      -0.27246408      -0.11085338
8
Lattice="5.4702 0.0 0.0 0.0 5.4702 0.0 0.0 0.0 5.4702" Properties=species:S:1:pos:R:3:momenta:R:3 time_fs=1160.0 temperature_K=100.15324702890454 pbc="T T T"
Si       0.04280855       0.02658354       0.06104726      -0.14879468       0.35309329       0.20201937
Si       1.37502021       1.41150722       1.45710425      -0.76179540       0.64710752       0.39102230
Si      -0.03083820       2.85179007       2.76149865      -0.53620798      -0.37104312      -0.62439083
Si       1.42407217       4.19020215       4.17423658       0.47436644      -0.86838160       0.68092874
Si       2.71062622      -0.00949944       2.73007283       0.87599927      -0.10179871       0.33705195
Si       4.20256823       1.27379188       4.07828364       0.02018587       0.22988474      -0.71217083
Si       2.66441551       2.60065782      -0.10762515      -0.24959200       0.39566146      -0.54001743
Si       4.02192731       4.06556675       1.25598194       0.32583848      -0.28452359       0.26555673
8
Lattice="5.4702 0.0 0.0 0.0 5.4702 0.0 0.0 0.0 5.4702" Properties=species:S:1:pos:R:3:momenta:R:3 time_fs=1170.0 temperature_K=112.92016910364684 pbc="T T T"
Si       0.03637626       0.03580849       0.07050561      -0.21721642       0.16629329       0.30807585
Si       1.34518415       1.43364393       1.46712571      -0.87118400       0.57356543       0.16665898
Si      -0.04657466       2.83619536       2.74103645      -0.34308654      -0.49153568      -0.50908764
Si       1.43136310       4.15426305       4.19056917      -0.08437073      -1.10441118       0.20622073
Si       2.74799570      -0.01366068       2.73915403       1.17760756      -0.13998433       0.16959741
Si       4.19633275       1.28980462       4.05162723      -0.35906120       0.66478742      -0.76078800
Si       2.66575910       2.61770679      -0.11900859       0.33797983       0.52895634      -0.06479180
Si       4.03416360       4.05683846       1.26959039       0.35933150      -0.19767130       0.48411446
8
Lattice="5.4702 0.0 0.0 0.0 5.4702 0.0 0.0 0.0 5.4702" Properties=species:S:1:pos:R:3:momenta:R:3 time_fs=1180.0 temperature_K=110.42775743681621 pbc="T T T"
Si       0.02753424       0.03809469       0.08005450      -0.29043703      -0.03181839       0.19954343
Si       1.31915057       1.44853302       1.46772127      -0.55204997       0.23756636      -0.14488258
Si      -0.05389688       2.81940531       2.72795676      -0.06868598      -0.44285241      -0.21892973
Si       1.41759530       4.11806154       4.18653337      -0.68806651      -0.91203876      -0.44404617
Si       2.78698087      -0.01955476       2.74141760       0.96951704      -0.19826913      -0.04177747
Si       4.17919502       1.31824052       4.02894906      -0.59248158       0.92479517      -0.48199398
Si       2.68762284       2.63503328      -0.11000175       0.88383843       0.44489462       0.58875589
Si       4.04641803       4.05278641       1.28796920       0.33836559      -0.02227745       0.54333061
8
Lattice="5.4702 0.0 0.0 0.0 5.4702 0.0 0.0 0.0 5.4702" Properties=species:S:1:pos:R:3:momenta:R:3 time_fs=1190.0 temperature_K=132.29643096859647 pbc="T T T"
Si       0.01603735       0.03412159       0.08201369      -0.36448564      -0.18451468      -0.11724063
Si       1.30994607       1.44819258       1.45660363       0.05295426      -0.27275555      -0.48753895
Si      -0.05127798       2.80636982       2.72609168       0.21493231      -0.29954324       0.10069820
Si       1.38602151       4.09240367       4.16100975      -1.05556124      -0.54858511      -0.96743237
Si       2.81103967      -0.02718572       2.73664494       0.35546073      -0.22575583      -0.21702995
Si       4.15674380       1.35161914       4.02086265      -0.66875581       0.93941434       0.04541662
Si       2.72398974       2.64932578      -0.07901111       1.12546708       0.39825135       1.14343467
Si       4.05809984       4.05575312       1.30638478       0.33998831       0.19348873       0.49969242
8
Lattice="5.4702 0.0 0.0 0.0 5.4702 0.0 0.0 0.0 5.4702" Properties=species:S:1:pos:R:3:momenta:R:3 time_fs=1200.0 temperature_K=170.56318865220567 pbc="T T T"
Si       0.00247186       0.02606875       0.07035467      -0.40115664      -0.26229702      -0.56155622
Si       1.32304387       1.42950329       1.43452243       0.67497394      -0.77958134      -0.75399766
Si      -0.03948810       2.79745437       2.73304047       0.44375472      -0.24145436       0.25498626
Si       1.34879036       4.07954730       4.12336309      -0.99890287      -0.18982042      -1.11195286
Si       2.80989292      -0.03408723       2.72769742      -0.42518875      -0.14799811      -0.26862215
Si       4.13360394       1.38097248       4.03251271      -0.64225273       0.70183139       0.60649150
Si       2.76108613       2.66500584      -0.03370199       0.92401747       0.52468563       1.38830161
Si       4.07119903       4.06613520       1.32281120       0.42475487       0.39463423       0.44634952
8
Lattice="5.4702 0.0 0.0 0.0 5.4702 0.0 0.0 0.0 5.4702" Properties=species:S:1:pos:R:3:momenta:R:3 time_fs=1210.0 temperature_K=201.94393473348504 pbc="T T T"
Si      -0.01108910       0.01670470       0.04269568      -0.35837826      -0.26084100      -1.00765477
Si       1.35436671       1.39564853       1.40559426       1.06064098      -1.11821702      -0.87484887
Si      -0.02176766       2.78658536       2.74070209       0.54331258      -0.42511064       0.13938220
Si       1.32074720       4.07904896       4.08816443      -0.55290164       0.15888233      -0.83884932
Si       2.78264652      -0.03628182       2.71969426      -1.09060130       0.03422003      -0.16489059
Si       4.11235711       1.39888487       4.06117114      -0.56952608       0.30967939       0.98955996
Si       2.78468933       2.68711143       0.01405779       0.38887722       0.74465089       1.28821985
Si       4.08864989       4.08289797       1.33852035       0.57857651       0.55673604       0.46908154
8
Lattice="5.4702 0.0 0.0 0.0 5.4702 0.0 0.0 0.0 5.4702" Properties=species:S:1:pos:R:3:momenta:R:3 time_fs=1220.0 temperature_K=219.95756992844468 pbc="T T T"
Si      -0.02147306       0.00853961       0.00174461      -0.22061735      -0.19862321      -1.29230600
Si       1.39266621       1.35433901       1.37474626       1.05700812      -1.19601263      -0.87702473
Si      -0.00313531       2.76522258       2.74069893       0.50568337      -0.81616947      -0.15082941
Si       1.31218673       4.08978241       4.06773120       0.06785413       0.42663614      -0.30810621
Si       2.73799592      -0.03153112       2.71750471      -1.38154801       0.23026249       0.05380123
Si       4.09365937       1.40279742       4.09830001      -0.50604064      -0.06878219       1.08057860
Si       2.78730895       2.71696442       0.05313622      -0.23046298       0.95596282       0.90976420
Si       4.11139120       4.10448567       1.35673807       0.70812336       0.66672604       0.58412232
8
Lattice="5.4702 0.0 0.0 0.0 5.4702 0.0 0.0 0.0 5.4702" Properties=species:S:1:pos:R:3:momenta:R:3 time_fs=1230.0 temperature_K=206.99821637803333 pbc="T T T"
Si      -0.02574698       0.00301138      -0.04400846      -0.01780819      -0.11975440      -1.26396795
Si       1.42337036       1.31540696       1.34443101       0.63614169      -0.98351006      -0.86137529
Si       0.01317908       2.72961142       2.73077547       0.42957393      -1.19829388      -0.39101268
Si       1.32405122       4.10570721       4.06645281       0.56864358       0.42475035       0.21180237
Si       2.69229598      -0.02115869       2.72408560      -1.14016992       0.34504661       0.32569103
Si       4.07621930       1.39613220       4.13316857      -0.50477163      -0.27325128       0.86601982
Si       2.77052087       2.75335432       0.07609888      -0.68604699       1.11395991       0.39541720
Si       4.13671019       4.12853519       1.37959613       0.71443753       0.69105275       0.71742551
8
Lattice="5.4702 0.0 0.0 0.0 5.4702 0.0 0.0 0.0 5.4702" Properties=species:S:1:pos:R:3:momenta:R:3 time_fs=1240.0 temperature_K=165.6913993651003 pbc="T T T"
Si      -0.02281177      -0.00030084      -0.08266102       0.17610918      -0.07894000      -0.89691317
Si       1.43417797       1.28813364       1.31406545      -0.03548532      -0.55168105      -0.87676690
Si       0.02721843       2.68384762       2.71565372       0.37528549      -1.37614460      -0.43909920
Si       1.34825796       4.11534059       4.07998222       0.75757566       0.07623848       0.51520378
Si       2.66360695      -0.00843939       2.73992459      -0.44705015       0.37355991       0.56443578
Si       4.05749157       1.38661310       4.15620793      -0.57396665      -0.23061425       0.42516790
Si       2.74294493       2.79387495       0.08132623      -0.83385907       1.18208175      -0.07389767
Si       4.15971396       4.15153033       1.40610088       0.58139087       0.60549976       0.78186949
8
Lattice="5.4702 0.0 0.0 0.0 5.4702 0.0 0.0 0.0 5.4702" Properties=species:S:1:pos:R:3:momenta:R:3 time_fs=1250.0 temperature_K=130.3247266733029 pbc="T T T"
Si      -0.01467518      -0.00312414      -0.10441937       0.26336929      -0.08970660      -0.33307288
Si       1.42173021       1.27745415       1.28375072      -0.63634592      -0.06394541      -0.83561377
Si       0.03917147       2.63646501       2.70217181       0.29867229      -1.28754773      -0.30697026
Si       1.37318612       4.10915672       4.09880923       0.61737329      -0.42917678       0.50334479
Si       2.66240559       0.00480611       2.76167354       0.36306920       0.38443224       0.64214178
Si       4.03617129       1.38224270       4.16222805      -0.63217934       0.00216540      -0.07262709
Si       2.71615147       2.83393794       0.07340309      -0.64342156       1.06934054      -0.33270260
Si       4.17645903       4.16966152       1.43298292       0.36946276       0.41443833       0.73550003
8
Lattice="5.4702 0.0 0.0 0.0 5.4702 0.0 0.0 0.0 5.4702" Properties=species:S:1:pos:R:3:momenta:R:3 time_fs=1260.0 temperature_K=97.05824656338118 pbc="T T T"
Si      -0.00653092      -0.00696607      -0.10638653       0.16974190      -0.13478032       0.19609429
Si       1.39382932       1.28266758       1.25758242      -0.88665453       0.34190085      -0.63006258
Si       0.04718373       2.59691610       2.69552530       0.14453008      -0.93112645      -0.05902115
Si       1.38843484       4.08730715       4.11107776       0.22044504      -0.76913979       0.14308206
Si       2.68581879       0.01822686       2.78197992       0.90598621       0.37287448       0.47794721
Si       4.01502440       1.38749568       4.15291196      -0.54149099       0.29925362      -0.41940075
Si       2.70134935       2.86549240       0.06168657      -0.16336195       0.68780877      -0.28469018
Si       4.18549049       4.17946030       1.45622261       0.15080424       0.13320883       0.57605110
8
Lattice="5.4702 0.0 0.0 0.0 5.4702 0.0 0.0 0.0 5.4702" Properties=species:S:1:pos:R:3:momenta:R:3 time_fs=1270.0 temperature_K=73.48182023097243 pbc="T T T"
Si      -0.00476939      -0.01285774      -0.09323835      -0.08889995      -0.20533540       0.51272750
Si       1.36478190       1.29977441       1.24156410      -0.70856437       0.61102626      -0.26490898
Si       0.04837013       2.57393781       2.69858484      -0.08569815      -0.35335149       0.23391880
Si       1.38728369       4.05947296       4.10614228      -0.28496481      -0.76590743      -0.43794165
Si       2.72014471       0.02971579       2.79261735       0.97358721       0.26375303       0.10272283
Si       4.00106546       1.40270947       4.13632415      -0.21816671       0.55607735      -0.47669994
Si       2.70623215       2.87945031       0.05633285       0.44011841       0.09078742      -0.00069351
Si       4.18749134       4.17839699       1.47227279      -0.02741163      -0.19704975       0.33087495
8
Lattice="5.4702 0.0 0.0 0.0 5.4702 0.0 0.0 0.0 5.4702" Properties=species:S:1:pos:R:3:momenta:R:3 time_fs=1280.0 temperature_K=94.27306569719639 pbc="T T T"
Si      -0.01319578      -0.02129972      -0.07340756      -0.38416173      -0.27169969       0.58534449
Si       1.34763838       1.32347368       1.23995684      -0.24491470       0.71380469       0.17789320
Si       0.04103364       2.57341354       2.71114537      -0.32839601       0.32666106       0.46173003
Si       1.37029290       4.03675620       4.08188336      -0.63872927      -0.50336890      -0.89740089
Si       2.74888555       0.03554299       2.78812677       0.61517222       0.06204005      -0.35930305
Si       4.00171543       1.42465682       4.12275747       0.26789038       0.66177230      -0.26531123
Si       2.73001223       2.87214691       0.06122639       0.86449155      -0.48217507       0.25036816
Si       4.18421765       4.16590958       1.47891137      -0.15135246      -0.50703444       0.04667929
8
Lattice="5.4702 0.0 0.0 0.0 5.4702 0.0 0.0 0.0 5.4702" Properties=species:S:1:pos:R:3:momenta:R:3 time_fs=1290.0 temperature_K=130.70970182659727 pbc="T T T"
Si      -0.03000716      -0.03104809      -0.05417373      -0.54109997      -0.26904223       0.49655983
Si       1.34787071       1.34752925       1.25383601       0.23942801       0.63166100       0.60664605
Si       0.02627725       2.59592337       2.72853871      -0.49700725       0.93269891       0.49088116
Si       1.34675400       4.02575141       4.04829472      -0.64400974      -0.10838612      -0.94346676
Si       2.76099532       0.03438867       2.76861282       0.06946506      -0.11251495      -0.72615124
Si       4.01937008       1.44559724       4.11894652       0.71788664       0.47834077       0.04773084
Si       2.76202778       2.84838737       0.07087097       0.89661472      -0.83343205       0.25449263
Si       4.17731203       4.14407078       1.47567398      -0.24127748      -0.71932533      -0.22669251
8
Lattice="5.4702 0.0 0.0 0.0 5.4702 0.0 0.0 0.0 5.4702" Properties=species:S:1:pos:R:3:momenta:R:3 time_fs=1300.0 temperature_K=143.77221951916434 pbc="T T T"
Si      -0.04803209      -0.03884698      -0.03933687      -0.44332872      -0.15991367       0.35046587
Si       1.36193870       1.36593874       1.28132736       0.51806673       0.40439149       0.94370948
Si       0.00775240       2.63583566       2.74254322      -0.53950281       1.29934647       0.27436741
Si       1.32919453       4.03026941       4.02116199      -0.31440113       0.37858579      -0.54274423
Si       2.75461300       0.02905069       2.74006766      -0.40469214      -0.17377539      -0.86161355
Si       4.04948467       1.45422203       4.12519793       0.96309855      -0.03179823       0.28603943
Si       2.78847265       2.81661700       0.07614266       0.56617981      -0.94955791       0.01333992
Si       4.16717615       4.11751347       1.46349604      -0.34542030      -0.76727854      -0.46356432
8
Lattice="5.4702 0.0 0.0 0.0 5.4702 0.0 0.0 0.0 5.4702" Properties=species:S:1:pos:R:3:momenta:R:3 time_fs=1310.0 temperature_K=153.8779967764585 pbc="T T T"
Si      -0.05801589      -0.04140019      -0.02917239      -0.09065857       0.01933166       0.24644053
Si       1.38050473       1.37543811       1.31785620       0.49053272       0.14571176       1.10933378
Si      -0.00982089       2.68307832       2.74644693      -0.44061559       1.34954576      -0.04785288
Si       1.32675849       4.05231823       4.01357640       0.18394636       0.86814773       0.13329546
Si       2.73564011       0.02308722       2.71149230      -0.62760892      -0.16335040      -0.72827423
Si       4.08393483       1.44153914       4.13674966       0.96939083      -0.69502764       0.33615637
Si       2.79919521       2.78375093       0.07012193       0.02697190      -0.91223015      -0.37230752
Si       4.15240340       4.09278824       1.44352898      -0.51195873      -0.61212872      -0.67679152
8
Lattice="5.4702 0.0 0.0 0.0 5.4702 0.0 0.0 0.0 5.4702" Properties=species:S:1:pos:R:3:momenta:R:3 time_fs=1320.0 temperature_K=183.3050752315357 pbc="T T T"
Si      -0.05251887      -0.03761088      -0.02046681       0.41921737       0.18969274       0.28077656
Si       1.39282477       1.37742458       1.35606483       0.17179432      -0.00414954       1.03223409
Si      -0.02133883       2.72709759       2.74092253      -0.19633745       1.13341433      -0.22726884
Si       1.34122675       4.08874185       4.03048013       0.61313009       1.16550191       0.81049723
Si       2.71474944       0.01736628       2.69188521      -0.50775572      -0.17233314      -0.36063928
Si       4.11494777       1.40730097       4.14580130       0.77454948      -1.21595233       0.13930439
Si       2.79006409       2.75352869       0.04976199      -0.53749302      -0.81189992      -0.78662673
Si       4.13064488       4.07675093       1.41615081      -0.73710507      -0.28427405      -0.88827742
8
Lattice="5.4702 0.0 0.0 0.0 5.4702 0.0 0.0 0.0 5.4702" Properties=species:S:1:pos:R:3:momenta:R:3 time_fs=1330.0 temperature_K=221.2144725926453 pbc="T T T"
Si      -0.02880674      -0.02884092      -0.00745297       0.91699423       0.30182365       0.48886733
Si       1.39055398       1.37725202       1.38741401      -0.31126306       0.02093278       0.73281281
Si      -0.02273490       2.76101139       2.73358166       0.11467190       0.80174702      -0.15415830
Si       1.36680066       4.12976809       4.06747878       0.80358999       1.11896130       1.25176964
Si       2.70368855       0.01052249       2.68764042      -0.08800472      -0.22128957       0.12177531
Si       4.13647741       1.36065305       4.14400158       0.44124274      -1.38574186      -0.26690622
Si       2.76343712       2.72691985       0.01619711      -0.94597530      -0.71361229      -1.10645916
Si       4.10118393       4.07331401       1.38173940      -0.93125577       0.07717896      -1.06770141
8
Lattice="5.4702 0.0 0.0 0.0 5.4702 0.0 0.0 0.0 5.4702" Properties=species:S:1:pos:R:3:momenta:R:3 time_fs=1340.0 temperature_K=238.68845223363533 pbc="T T T"
Si       0.00888364      -0.01698024       0.01465964       1.18030555       0.37286000       0.77340336
Si       1.37202277       1.38003421       1.40653763      -0.71070150       0.14374835       0.36728153
Si      -0.01452345       2.78380530       2.73194143       0.32372292       0.52136827       0.07309311
Si       1.39443913       4.16320994       4.11382308       0.73897358       0.75169823       1.33470129
Si       2.70956633       0.00228253       2.69936612       0.41299672      -0.23763369       0.51547270
Si       4.14564855       1.31467339       4.12663579       0.09650572      -1.19003660      -0.71333488
Si       2.72717697       2.70316439      -0.02518803      -1.07546634      -0.65483285      -1.21877043
Si       4.06738607       4.08041048       1.34282434      -0.96633664       0.29282829      -1.13184669
8
Lattice="5.4702 0.0 0.0 0.0 5.4702 0.0 0.0 0.0 5.4702" Properties=species:S:1:pos:R:3:momenta:R:3 time_fs=1350.0 temperature_K=192.48175529680887 pbc="T T T"
Si       0.04891321      -0.00299883       0.04527289       1.03396072       0.41938300       0.94101519
Si       1.34474030       1.38722087       1.41467446      -0.78137005       0.26353545       0.13291323
Si      -0.00276500       2.79919596       2.73880061       0.30815999       0.38445120       0.31154347
Si       1.41630104       4.18076158       4.15654664       0.48536433       0.24846740       1.05127217
Si       2.73022220      -0.00524126       2.72044728       0.71607566      -0.18542878       0.63470349
Si       4.14524417       1.28041883       4.09637198      -0.07757104      -0.73413379      -0.96753046
Si       2.69181696       2.68013842      -0.06604731      -0.89702285      -0.67820425      -1.07437498
Si       4.03612713       4.09110444       1.30453346      -0.78759676       0.28192977      -1.02954210
8
Lattice="5.4702 0.0 0.0 0.0 5.4702 0.0 0.0 0.0 5.4702" Properties=species:S:1:pos:R:3:momenta:R:3 time_fs=1360.0 temperature_K=97.29393344794214 pbc="T T T"
Si       0.07639432       0.01135186       0.07719334       0.48123628       0.38050859       0.83098365
Si       1.32210138       1.39836736       1.41863800      -0.45320841       0.37449532       0.13458586
Si       0.00457110       2.81221089       2.75274056       0.08455790       0.37552338       0.46548675
Si       1.42698218       4.18151864       4.18413010       0.11159933      -0.17900689       0.49458119
Si       2.75543200      -0.01088166       2.73992487       0.66340266      -0.14895045       0.42908653
Si       4.14354528       1.26522902       4.06304061       0.02737041      -0.11522781      -0.87723100
Si       2.66743159       2.65472378      -0.09759862      -0.46364599      -0.78349705      -0.69750007
Si       4.01414216       4.09808010       1.27253115      -0.45131217       0.09615492      -0.77999292
8
Lattice="5.4702 0.0 0.0 0.0 5.4702 0.0 0.0 0.0 5.4702" Properties=species:S:1:pos:R:3:momenta:R:3 time_fs=1370.0 temperature_K=53.93151539665666 pbc="T T T"
Si       0.08029316       0.02221639       0.09998870      -0.26300428       0.22756088       0.43460760
Si       1.31585341       1.41324493       1.42639053       0.11153805       0.46580407       0.32900182
Si       0.00211714       2.82605177       2.76961319      -0.22708735       0.41747215       0.46962180
Si       1.42378097       4.17036338       4.19034651      -0.28848944      -0.42930192      -0.12942263
Si       2.77303667      -0.01661036       2.74789422       0.30911663      -0.18759449       0.00778860
Si       4.14956519       1.27271806       4.03866569       0.33222516       0.52931430      -0.47953066
Si       2.66075598       2.62563808      -0.11340776       0.08558102      -0.85933882      -0.19961611
Si       4.00519747       4.09697775       1.25110892      -0.05987978      -0.16391618      -0.43245043
8
Lattice="5.4702 0.0 0.0 0.0 5.4702 0.0 0.0 0.0 5.4702" Properties=species:S:1:pos:R:3:momenta:R:3 time_fs=1380.0 temperature_K=98.27413420990739 pbc="T T T"
Si       0.05969813       0.02726934       0.10619068      -0.86481341       0.07426420      -0.08194420
Si       1.32908637       1.42941005       1.44187304       0.60888309       0.42649610       0.54295941
Si      -0.01063131       2.84112060       2.78331679      -0.48140776       0.43502235       0.28012228
Si       1.40802187       4.15317821       4.17704909      -0.58513111      -0.53407696      -0.58783054
Si       2.77629313      -0.02385559       2.74068515      -0.11162570      -0.21384555      -0.39640909
Si       4.16615204       1.29964308       4.03059466       0.58434827       0.95153418       0.01304951
Si       2.67256043       2.59711966      -0.11200758       0.56315222      -0.72361567       0.26227782
Si       4.00941934       4.08671464       1.24289815       0.28659438      -0.41577866      -0.03222521
8
Lattice="5.4702 0.0 0.0 0.0 5.4702 0.0 0.0 0.0 5.4702" Properties=species:S:1:pos:R:3:momenta:R:3 time_fs=1390.0 temperature_K=139.00925057202733 pbc="T T T"
Si       0.02430601       0.02873208       0.09513342      -1.08705076       0.02802459      -0.52647250
Si       1.35485064       1.44072411       1.46257821       0.80437721       0.19139910       0.60614125
Si      -0.02958928       2.85550610       2.78707941      -0.56869872       0.36807520      -0.08853110
Si       1.38519138       4.13422185       4.15272538      -0.68346740      -0.53195029      -0.75054296
Si       2.76707109      -0.03039363       2.72276219      -0.37982326      -0.14510885      -0.58279322
Si       4.18723258       1.33446017       4.03817747       0.56796835       0.96924477       0.38967804
Si       2.69767248       2.57851329      -0.09667945       0.83091825      -0.29429897       0.58844158
Si       4.02386508       4.06883602       1.24882337       0.51577633      -0.58538554       0.36407892
8
Lattice="5.4702 0.0 0.0 0.0 5.4702 0.0 0.0 0.0 5.4702" Properties=species:S:1:pos:R:3:momenta:R:3 time_fs=1400.0 temperature_K=123.10295715097664 pbc="T T T"
Si      -0.01152658       0.02994258       0.07155205      -0.89971253       0.04035672      -0.78435305
Si       1.38124471       1.44162756       1.48147748       0.65137967      -0.14220898       0.43085663
Si      -0.04787380       2.86504586       2.77642296      -0.43945291       0.14423793      -0.51362551
Si       1.36271232       4.11731276       4.12789584      -0.56962493      -0.41556626      -0.62898317
Si       2.75239082      -0.03356238       2.70322328      -0.42178851      -0.03969332      -0.48787947
Si       4.20233757       1.36343278       4.05529812       0.25089665       0.64852902       0.54862199
Si       2.72760515       2.57888796      -0.07256518       0.83627946       0.33412496       0.76785501
Si       4.04370980       4.04791287       1.26729545       0.59202309      -0.56978007       0.66750757
8
Lattice="5.4702 0.0 0.0 0.0 5.4702 0.0 0.0 0.0 5.4702" Properties=species:S:1:pos:R:3:momenta:R:3 time_fs=1410.0 temperature_K=91.85600996231555 pbc="T T T"
Si      -0.03508451       0.03079371       0.04312239      -0.40998049      -0.00905316      -0.79976995
Si       1.39745166       1.43148094       1.48968259       0.24615178      -0.41933757      -0.00207038
Si      -0.05780944       2.86296789       2.75303077      -0.09512888      -0.30148624      -0.77883552
Si       1.34708246       4.10623030       4.11071593      -0.30830632      -0.20946915      -0.33783332
Si       2.73992852      -0.03394105       2.69156522      -0.26296812       0.00365277      -0.14364304
Si       4.20233503       1.37867605       4.07367546      -0.27521992       0.22754762       0.46340946
Si       2.75330366       2.60194787      -0.04440558       0.59735476       0.96834966       0.82280407
Si       4.06339263       4.03244428       1.29321322       0.50809719      -0.26020393       0.77593870
8
Lattice="5.4702 0.0 0.0 0.0 5.4702 0.0 0.0 0.0 5.4702" Properties=species:S:1:pos:R:3:momenta:R:3 time_fs=1420.0 temperature_K=119.769565259603 pbc="T T T"
Si      -0.03884184       0.02822856       0.01809060       0.19468731      -0.14611315      -0.60603161
Si       1.39760578       1.41362754       1.47917368      -0.23087163      -0.58680822      -0.61665529
Si      -0.05275424       2.84189660       2.72572284       0.39594873      -0.91707538      -0.72809227
Si       1.34155603       4.10259483       4.10444323      -0.01087282      -0.00936461      -0.03009517
Si       2.73520825      -0.03399406       2.69477217      -0.00282502      -0.00775675       0.33447806
Si       4.18233736       1.38064393       4.08566165      -0.86371583      -0.08796984       0.20634235
Si       2.76746528       2.64449042      -0.01637975       0.19430376       1.42181743       0.75986844
Si       4.07802338       4.03311219       1.31911558       0.32334550       0.33327053       0.68018548
8
Lattice="5.4702 0.0 0.0 0.0 5.4702 0.0 0.0 0.0 5.4702" Properties=species:S:1:pos:R:3:momenta:R:3 time_fs=1430.0 temperature_K=218.0422568458029 pbc="T T T"
Si      -0.02299824       0.02076366       0.00151546       0.66845494      -0.26750855      -0.34542415
Si       1.38310607       1.39093358       1.44651636      -0.55442592      -0.70971171      -1.23284023
Si      -0.03082344       2.79956876       2.70506751       0.82387170      -1.46661877      -0.42636295
Si       1.34565600       4.10424664       4.10734899       0.23111329       0.07887424       0.17129958
Si       2.73894673      -0.03383296       2.71421455       0.19070157       0.03406222       0.74853740
Si       4.14349816       1.37451110       4.08826620      -1.31578267      -0.23451438      -0.03738389
Si       2.76638592       2.69797298       0.00744309      -0.25203619       1.58410138       0.58658541
Si       4.08682879       4.05643624       1.34022784       0.20810329       0.98131555       0.53558883
8
Lattice="5.4702 0.0 0.0 0.0 5.4702 0.0 0.0 0.0 5.4702" Properties=species:S:1:pos:R:3:momenta:R:3 time_fs=1440.0 temperature_K=276.33682314257203 pbc="T T T"
Si       0.00382643       0.01077752      -0.00722307       0.79564835      -0.28573869      -0.18153487
Si       1.36272615       1.36413210       1.39545187      -0.54776717      -0.81400259      -1.63399690
Si       0.00120932       2.74325549       2.69670439       0.94485528      -1.68495032      -0.05236419
Si       1.35650261       4.10627409       4.11441840       0.36829114       0.01245974       0.20178748
Si       2.74605002      -0.03043802       2.74409107       0.17380945       0.17101903       0.90442557
Si       4.09424062       1.36619427       4.08536543      -1.43347698      -0.21154316      -0.08613367
Si       2.75098732       2.75183471       0.02397866      -0.59878623       1.45099058       0.35738238
Si       4.09505753       4.09856984       1.35781325       0.29742614       1.36176540       0.49043421
8
Lattice="5.4702 0.0 0.0 0.0 5.4702 0.0 0.0 0.0 5.4702" Properties=species:S:1:pos:R:3:momenta:R:3 time_fs=1450.0 temperature_K=218.48505471903485 pbc="T T T"
Si       0.02769451       0.00150435      -0.01356305       0.50296609      -0.24325737      -0.21934758
Si       1.34898136       1.33544317       1.33676639      -0.18681826      -0.79423366      -1.64837211
Si       0.03116167       2.68632835       2.70080281       0.72030950      -1.51352608       0.27103524
Si       1.36971054       4.10387265       4.11930996       0.35851447      -0.15890589       0.04870679
Si       2.74832501      -0.02184734       2.77327352      -0.07683070       0.31076740       0.70434012
Si       4.04803491       1.36193562       4.08531811      -1.14515772       0.00015253       0.12456667
Si       2.72742064       2.79683659       0.03306162      -0.69692322       1.09284639       0.18116125
Si       4.10927136       4.14652661       1.37563064       0.52393985       1.30615667       0.53790960
8
Lattice="5.4702 0.0 0.0 0.0 5.4702 0.0 0.0 0.0 5.4702" Properties=species:S:1:pos:R:3:momenta:R:3 time_fs=1460.0 temperature_K=126.20747492836423 pbc="T T T"
Si       0.03548113      -0.00658166      -0.02504074      -0.08689105      -0.22537985      -0.46376299
Si       1.35203059       1.31116865       1.28515552       0.37235722      -0.55845803      -1.24024555
Si       0.04950401       2.64023286       2.71411724       0.31623517      -1.09662627       0.46256378
Si       1.37944788       4.09518527       4.11612527       0.16821986      -0.32937105      -0.24816563
Si       2.73936287      -0.00961501       2.78994454      -0.43618369       0.37730643       0.21695453
Si       4.01741242       1.36788629       4.09613361      -0.57974405       0.35003206       0.50661802
Si       2.70609589       2.82693079       0.03842127      -0.46880997       0.61952942       0.15288067
Si       4.13126522       4.18539282       1.39574330       0.71481652       0.86296729       0.61315716
8
Lattice="5.4702 0.0 0.0 0.0 5.4702 0.0 0.0 0.0 5.4702" Properties=species:S:1:pos:R:3:momenta:R:3 time_fs=1470.0 temperature_K=107.98898082241155 pbc="T T T"
Si       0.02154701      -0.01426795      -0.04662540      -0.68203605      -0.20614450      -0.75808740
Si       1.37378751       1.29792146       1.25298197       0.82492185      -0.19465500      -0.58080892
Si       0.05345080       2.61061003       2.73100755      -0.07652493      -0.59215087       0.47079769
Si       1.37987798       4.08169809       4.10153059      -0.15521015      -0.42819197      -0.57900138
Si       2.71922119       0.00420525       2.78778618      -0.67690351       0.41380989      -0.32706282
Si       4.00764782       1.38571496       4.12014482       0.00153583       0.64012254       0.83659944
Si       2.69761106       2.84048858       0.04530324       0.01085348       0.17450044       0.25349238
Si       4.15745663       4.20422958       1.41847105       0.75336348       0.19270946       0.68407101
8
Lattice="5.4702 0.0 0.0 0.0 5.4702 0.0 0.0 0.0 5.4702" Properties=species:S:1:pos:R:3:momenta:R:3 time_fs=1480.0 temperature_K=134.81845588252492 pbc="T T T"
Si      -0.00873553      -0.02019199      -0.07579930      -0.98505281      -0.12361681      -0.86169274
Si       1.40500317       1.29679645       1.24415871       0.87997006       0.11080654       0.05022411
Si       0.04560312       2.59864314       2.74491969      -0.34715627      -0.10246075       0.29821000
Si       1.36885819       4.06615033       4.07709329      -0.45554989      -0.44728668      -0.78557064
Si       2.69544435       0.01936137       2.76932559      -0.62878352       0.44764370      -0.68096199
Si       4.01509216       1.40984366       4.15151805       0.38028057       0.69542092       0.90259089
Si       2.70737014       2.84131121       0.05621404       0.53470789      -0.08744268       0.36066059
Si       4.18196440       4.19868582       1.44316992       0.62158397      -0.49306424       0.71653978
8
Lattice="5.4702 0.0 0.0 0.0 5.4702 0.0 0.0 0.0 5.4702" Properties=species:S:1:pos:R:3:momenta:R:3 time_fs=1490.0 temperature_K=122.74562544642674 pbc="T T T"
Si      -0.04270740      -0.02301674      -0.10303965      -0.89388021      -0.05098997      -0.63915078
Si       1.42994738       1.30445930       1.25372102       0.47921974       0.31640761       0.44756464
Si       0.03098335       2.60211254       2.75050754      -0.46287416       0.27266314       0.01025920
Si       1.35021491       4.05156338       4.04931440      -0.57007693      -0.36616257      -0.76083075
Si       2.67875231       0.03443340       2.74403458      -0.28260075       0.38876178      -0.70605346
Si       4.03114557       1.43170153       4.17936927       0.49588004       0.52526444       0.63681540
Si       2.73295920       2.83717003       0.06944451       0.88491153      -0.11464199       0.37782146
Si       4.19930467       4.17217656       1.46724833       0.34942074      -0.97130244       0.63357430
8
Lattice="5.4702 0.0 0.0 0.0 5.4702 0.0 0.0 0.0 5.4702" Properties=species:S:1:pos:R:3:momenta:R:3 time_fs=1500.0 temperature_K=77.04853617898023 pbc="T T T"
Si      -0.06747601      -0.02515693      -0.11703534      -0.48048887      -0.09278170      -0.12291688
Si       1.43522789       1.31859908       1.27198279      -0.20028080       0.48940900       0.55130735
Si       0.01497018       2.61527605       2.74560459      -0.42859372       0.44132235      -0.27959120
Si       1.33197707       4.04216836       4.02664683      -0.43119907      -0.14763312      -0.50022492
Si       2.67777039       0.04454384       2.72367531       0.23997528       0.16368173      -0.41606521
Si       4.04732627       1.44519492       4.19299711       0.40269229       0.23362995       0.11117792
Si       2.76561194       2.83486045       0.08142001       0.92424241      -0.00936131       0.28987434
Si       4.20519227       4.13511423       1.48530869      -0.02634752      -1.07826690       0.36643860
8
Lattice="5.4702 0.0 0.0 0.0 5.4702 0.0 0.0 0.0 5.4702" Properties=species:S:1:pos:R:3:momenta:R:3 time_fs=1510.0 temperature_K=71.10442743947948 pbc="T T T"
Si      -0.07457854      -0.03044717      -0.11019198       0.08077037      -0.21096950       0.51550737
Si       1.41632742       1.33808426       1.28998372      -0.84637900       0.60630806       0.45948858
Si       0.00256704       2.63056778       2.73250124      -0.26155954       0.40830943      -0.43773249
Si       1.32244147       4.04247030       4.01621042      -0.08968335       0.17358309      -0.07911635
Si       2.69503314       0.04498259       2.71650002       0.71848070      -0.13540186       0.00672241
Si       4.05824692       1.44742064       4.18623009       0.21866980      -0.11330006      -0.49077224
Si       2.79359580       2.83602052       0.08844055       0.62189956       0.05457866       0.09048480
Si       4.19696676       4.10150108       1.49092594      -0.44219855      -0.78310783      -0.06458208
8
Lattice="5.4702 0.0 0.0 0.0 5.4702 0.0 0.0 0.0 5.4702" Properties=species:S:1:pos:R:3:momenta:R:3 time_fs=1520.0 temperature_K=123.4509597444735 pbc="T T T"
Si      -0.06263618      -0.03904046      -0.08222521       0.57468686      -0.25654676       1.04891047
Si       1.37999635       1.35906356       1.30370788      -1.15742266       0.55956942       0.32814228
Si      -0.00254361       2.64332181       2.71753819      -0.03050085       0.33313800      -0.38050178
Si       1.32655383       4.05410458       4.02155183       0.32475539       0.47749136       0.37978895
Si       2.72481504       0.03629834       2.72290929       0.92580500      -0.33399460       0.32796189
Si       4.06322387       1.43695560       4.16061724       0.08491815      -0.48505553      -0.92770806
Si       2.80595656       2.83651857       0.08611151       0.05148499      -0.06317031      -0.24744076
Si       4.17523415       4.08337800       1.48038926      -0.77372688      -0.23143158      -0.52915300
8
Lattice="5.4702 0.0 0.0 0.0 5.4702 0.0 0.0 0.0 5.4702" Properties=species:S:1:pos:R:3:momenta:R:3 time_fs=1530.0 temperature_K=181.45820571340352 pbc="T T T"
Si      -0.03702670      -0.04642859      -0.04003159       0.84502640      -0.13860392       1.30994740
Si       1.34086249       1.37501880       1.31341092      -1.00306372       0.32825697       0.23660168
Si      -0.00045103       2.65585180       2.70814359       0.12644564       0.42219610      -0.13180690
Si       1.34435858       4.07432612       4.04176240       0.67130844       0.65179886       0.75280121
Si       2.75543391       0.02355566       2.73676650       0.76350040      -0.37088428       0.42291979
Si       4.06599474       1.41409943       4.12532733       0.10405983      -0.80252000      -1.02685295
Si       2.79608114       2.82911561       0.06989912      -0.61189908      -0.38975070      -0.68661928
Si       4.14534686       4.08506118       1.45532173      -0.89537790       0.29950697      -0.87699095
8
Lattice="5.4702 0.0 0.0 0.0 5.4702 0.0 0.0 0.0 5.4702" Properties=species:S:1:pos:R:3:momenta:R:3 time_fs=1540.0 temperature_K=208.64068530173566 pbc="T T T"
Si      -0.00669212      -0.04738535       0.00543956       0.84586539       0.09286480       1.23242258
Si       1.31437810       1.38127121       1.32128400      -0.46311921       0.03427623       0.23525745
Si       0.00437825       2.67543437       2.70931111       0.12375799       0.72549367       0.20074838
Si       1.37131501       4.09782573       4.07215375       0.82956173       0.66799022       0.95027151
Si       2.77452902       0.01149843       2.74968182       0.28868866      -0.30891013       0.27862940
Si       4.07264267       1.38291933       4.09305941       0.30397410      -0.94159434      -0.76387269
Si       2.76504491       2.80798827       0.03871033      -1.11310969      -0.82423334      -1.07083093
Si       4.11500416       4.10104801       1.42096002      -0.81561896       0.55411291      -1.06262569
8
Lattice="5.4702 0.0 0.0 0.0 5.4702 0.0 0.0 0.0 5.4702" Properties=species:S:1:pos:R:3:momenta:R:3 time_fs=1550.0 temperature_K=209.5057538250813 pbc="T T T"
Si       0.01945227      -0.04004720       0.04240313       0.61792776       0.31715150       0.83521308
Si       1.31027872       1.37878461       1.33186771       0.23088904      -0.14576267       0.40299661
Si       0.00696593       2.70740011       2.72146536       0.01605813       1.09638584       0.47277916
Si       1.39909471       4.11980645       4.10557710       0.70794861       0.57780770       0.92079907
Si       2.77423392       0.00236274       2.75420688      -0.30289944      -0.20853490      -0.03879004
Si       4.08859115       1.35107897       4.07467679       0.61456187      -0.84207390      -0.26625894
Si       2.72288225       2.77180290      -0.00219933      -1.21954878      -1.23134177      -1.21783239
Si       4.08910105       4.11941141       1.38260235      -0.66493720       0.43636820      -1.10890654
8
Lattice="5.4702 0.0 0.0 0.0 5.4702 0.0 0.0 0.0 5.4702" Properties=species:S:1:pos:R:3:momenta:R:3 time_fs=1560.0 temperature_K=203.76194756294615 pbc="T T T"
Si       0.03515931      -0.02604928       0.06186383       0.27343952       0.47108687       0.27056034
Si       1.32897555       1.37340425       1.35146154       0.79249277      -0.13099368       0.73478528
Si       0.00549389       2.75065149       2.74040332      -0.09496465       1.34394910       0.57833715
Si       1.41753878       4.13784919       4.13395786       0.30912109       0.45186859       0.67146216
Si       2.75521386      -0.00267720       2.74665887      -0.73519665      -0.07418032      -0.38153897
Si       4.11497587       1.32586407       4.07430376       0.86938280      -0.58479011       0.22032034
Si       2.68519009       2.72328245      -0.04287328      -0.86573890      -1.51575780      -1.06170741
Si       4.06805265       4.12827503       1.34482410      -0.54853597       0.03881735      -1.03221889
8
Lattice="5.4702 0.0 0.0 0.0 5.4702 0.0 0.0 0.0 5.4702" Properties=species:S:1:pos:R:3:momenta:R:3 time_fs=1570.0 temperature_K=191.28994598414357 pbc="T T T"
Si       0.03899972      -0.00787410       0.06251605      -0.03633798       0.55655665      -0.19350746
Si       1.36121158       1.37132007       1.38317953       0.97201023       0.03099678       1.05792087
Si       0.00077452       2.79871850       2.75983430      -0.16916348       1.36286365       0.50683087
Si       1.41938831       4.15127504       4.15125304      -0.20101533       0.31138407       0.31234838
Si       2.72734441      -0.00285704       2.72932947      -0.78400352       0.05332774      -0.57064744
Si       4.14700032       1.31057769       4.08711169       0.92238841      -0.28921097       0.45564540
Si       2.66574884       2.66824069      -0.07418098      -0.22235161      -1.58745570      -0.71142368
Si       4.05013229       4.12119914       1.31155689      -0.48152672      -0.43846221      -0.85716694
8
Lattice="5.4702 0.0 0.0 0.0 5.4702 0.0 0.0 0.0 5.4702" Properties=species:S:1:pos:R:3:momenta:R:3 time_fs=1580.0 temperature_K=145.7705166666983 pbc="T T T"
Si       0.03435670       0.01182019       0.05217257      -0.19993144       0.54973335      -0.33417773
Si       1.39120739       1.37676576       1.42274668       0.66459668       0.29638639       1.15189400
Si      -0.00608921       2.84304314       2.77443340      -0.22192129       1.13023014       0.31242559
Si       1.40506768       4.15913548       4.15626509      -0.57806794       0.13062276      -0.00975620
Si       2.70545340      -0.00056742       2.71002112      -0.40264093       0.04362044      -0.48240426
Si       4.17680006       1.30554437       4.10183976       0.74633358      -0.00037702       0.32350068
Si       2.66947453       2.61579891      -0.09228921       0.40973641      -1.35675815      -0.32673730
Si       4.03432945       4.09905957       1.28541059      -0.41810507      -0.79345791      -0.63474478
8
Lattice="5.4702 0.0 0.0 0.0 5.4702 0.0 0.0 0.0 5.4702" Properties=species:S:1:pos:R:3:momenta:R:3 time_fs=1590.0 temperature_K=89.88422858623204 pbc="T T T"
Si       0.02696102       0.02900189       0.04330688      -0.19981331       0.41074324      -0.12458327
Si       1.40351926       1.39278116       1.45993691       0.00673502       0.61806858       0.92679727
Si      -0.01476567       2.87513751       2.78086388      -0.27542370       0.67320730       0.04679659
Si       1.38236839       4.16014596       4.15208828      -0.66689547      -0.07137447      -0.20327092
Si       2.70240053      -0.00222621       2.69868803       0.24855061      -0.16469251      -0.13533093
Si       4.19727394       1.31025555       4.10592685       0.40667617       0.26014183      -0.13027908
Si       2.69140872       2.57687478      -0.09740088       0.78830331      -0.82620834       0.02787621
Si       4.02143381       4.06862936       1.26719003      -0.30813263      -0.89988563      -0.40800587
8
Lattice="5.4702 0.0 0.0 0.0 5.4702 0.0 0.0 0.0 5.4702" Properties=species:S:1:pos:R:3:momenta:R:3 time_fs=1600.0 temperature_K=83.57042192310101 pbc="T T T"
Si       0.02134512       0.03950145       0.04534489      -0.11792518       0.18420462       0.24431687
Si       1.39185547       1.41849661       1.48540556      -0.63684581       0.80971918       0.51611479
Si      -0.02538996       2.88866803       2.77741049      -0.33052497       0.09295294      -0.24297971
Si       1.36183790       4.15460810       4.14392397      -0.46612990      -0.23477118      -0.23739886
Si       2.72204526      -0.01253290       2.70110845       0.83286100      -0.40979877       0.25917039
Si       4.20486114       1.32245714       4.09151481       0.03318830       0.41015032      -0.68444595
Si       2.72032524       2.56004792      -0.09096001       0.80319178      -0.12269271       0.32719066
Si       4.01371984       4.03935366       1.25685183      -0.11781522      -0.72976439      -0.18196820
8
Lattice="5.4702 0.0 0.0 0.0 5.4702 0.0 0.0 0.0 5.4702" Properties=species:S:1:pos:R:3:momenta:R:3 time_fs=1610.0 temperature_K=104.02169152055971 pbc="T T T"
Si       0.01833680       0.04219160       0.05907656      -0.06518105      -0.01837329       0.50414972
Si       1.36321693       1.44552435       1.49591997      -0.92510375       0.67463074       0.08929559
Si      -0.03749519       2.88222037       2.76448851      -0.35125595      -0.43759425      -0.47858253
Si       1.35170028       4.14452743       4.13701749      -0.10046029      -0.33066273      -0.14134965
Si       2.75631975      -0.02890415       2.71472427       1.05317753      -0.49242017       0.48045384
Si       4.20051263       1.33672719       4.06060110      -0.26543476       0.37448201      -1.02269045
Si       2.74378243       2.56796760      -0.07590259       0.49460876       0.55350605       0.50688408
Si       4.01422638       4.02034560       1.25467470       0.15964952      -0.32356837       0.06183941
8
Lattice="5.4702 0.0 0.0 0.0 5.4702 0.0 0.0 0.0 5.4702" Properties=species:S:1:pos:R:3:momenta:R:3 time_fs=1620.0 temperature_K=104.29968468263397 pbc="T T T"
Si       0.01599476       0.03926018       0.07739370      -0.07755147      -0.13389705       0.49240075
Si       1.33249064       1.46184625       1.49194884      -0.76080866       0.21444979      -0.31268822
Si      -0.04890707       2.86056261       2.74567107      -0.28223446      -0.75737854      -0.56671273
Si       1.35467144       4.13213484       4.13463710       0.25424463      -0.36978561       0.00600657
Si       2.79061861      -0.04494677       2.73195924       0.84104708      -0.40357004       0.46809414
Si       4.18735408       1.34700602       4.02520128      -0.47385021       0.20029367      -0.91959756
Si       2.75296976       2.59632452      -0.05763804       0.01972963       1.02444162       0.50733996
Si       4.02540778       4.01841236       1.26142680       0.47942347       0.22544616       0.32515710
8
Lattice="5.4702 0.0 0.0 0.0 5.4702 0.0 0.0 0.0 5.4702" Properties=species:S:1:pos:R:3:momenta:R:3 time_fs=1630.0 temperature_K=103.38037995355732 pbc="T T T"
Si       0.01263540       0.03375014       0.09004784      -0.11360576      -0.17029231       0.18472829
Si       1.31400464       1.45858409       1.47443303      -0.25536420      -0.41057681      -0.67867475
Si      -0.05576190       2.83217416       2.72707290      -0.08773112      -0.83099269      -0.46690922
Si       1.36759252       4.11922489       4.13697152       0.44851649      -0.35950348       0.11381363
Si       2.81126891      -0.05619028       2.74531396       0.29743446      -0.23153021       0.27223896
Si       4.16818107       1.35066817       4.00159983      -0.61164185       0.01924567      -0.36626436
Si       2.74566979       2.63650813      -0.04196329      -0.41178363       1.23077924       0.37856465
Si       4.04700957       4.03588071       1.27712421       0.73417562       0.75287059       0.56250280
8
Lattice="5.4702 0.0 0.0 0.0 5.4702 0.0 0.0 0.0 5.4702" Properties=species:S:1:pos:R:3:momenta:R:3 time_fs=1640.0 temperature_K=140.02283813887408 pbc="T T T"
Si       0.00837900       0.02794781       0.08759096      -0.12241282      -0.15505177      -0.35441556
Si       1.31607600       1.43379969       1.44573085       0.37372574      -0.97880976      -0.93659052
Si      -0.05365391       2.80392223       2.71462779       0.22393025      -0.77798481      -0.22994962
Si       1.38315792       4.10772683       4.14123768       0.39699678      -0.28581104       0.10554710
Si       2.80963889      -0.06068829       2.75004845      -0.39768362      -0.01799493      -0.00469232
Si       4.14528939       1.34957084       4.00249900      -0.68803304      -0.06014775       0.43407488
Si       2.72701768       2.67977613      -0.03091074      -0.60122301       1.20988130       0.26987901
Si       4.07469503       4.06854476       1.29977601       0.81469972       1.06591876       0.71614702
8
Lattice="5.4702 0.0 0.0 0.0 5.4702 0.0 0.0 0.0 5.4702" Properties=species:S:1:pos:R:3:momenta:R:3 time_fs=1650.0 temperature_K=206.27031246846792 pbc="T T T"
Si       0.00462568       0.02316632       0.06426555      -0.08499735      -0.11797970      -0.97549904
Si       1.33875298       1.39303792       1.41103263       0.88499623      -1.29948404      -1.01695120
Si      -0.03958335       2.77738435       2.71137791       0.57759110      -0.75258860       0.04124466
Si       1.39239061       4.10005521       4.14247275       0.09418046      -0.14381184      -0.06172392
Si       2.78441459      -0.05680229       2.74552575      -1.00951253       0.24892760      -0.23573172
Si       4.12054583       1.34800004       4.03117629      -0.72269962      -0.00887302       1.16800619
Si       2.70770271       2.71909725      -0.02137149      -0.44555888       1.01439627       0.30400268
Si       4.10175095       4.10666121       1.32612062       0.70600059       1.05941332       0.77665235
8
Lattice="5.4702 0.0 0.0 0.0 5.4702 0.0 0.0 0.0 5.4702" Properties=species:S:1:pos:R:3:momenta:R:3 time_fs=1660.0 temperature_K=253.9854472191259 pbc="T T T"
Si       0.00275763       0.01944746       0.02112611      -0.02059392      -0.10208419      -1.44382368
Si       1.37436304       1.34691253       1.37628070       1.08809602      -1.27802011      -0.95586228
Si      -0.01430725       2.75029215       2.71684264       0.84087036      -0.80875188       0.25577520
Si       1.38814024       4.09778744       4.13546586      -0.34179781       0.00585835      -0.35032424
Si       2.74281240      -0.04311192       2.73541621      -1.29899196       0.52588339      -0.30862179
Si       4.09485535       1.35021737       4.08010380      -0.74582457       0.15078070       1.55449378
Si       2.69906120       2.74965072      -0.00795037      -0.01982130       0.72877903       0.47931043
Si       4.12291739       4.13940426       1.35331504       0.49806319       0.77755472       0.76905258
8
Lattice="5.4702 0.0 0.0 0.0 5.4702 0.0 0.0 0.0 5.4702" Properties=species:S:1:pos:R:3:momenta:R:3 time_fs=1670.0 temperature_K=233.4459215940859 pbc="T T T"
Si       0.00297381       0.01536448      -0.03213995       0.02552870      -0.14102552      -1.52427599
Si       1.41009832       1.30768455       1.34430130       0.88638650      -0.91238928      -0.88235161
Si       0.01672865       2.72026572       2.72787146       0.89116543      -0.91233350       0.35069783
Si       1.36968771       4.09915787       4.11805351      -0.67527720       0.04569919      -0.63184330
Si       2.69899950      -0.02150114       2.72658270      -1.12686080       0.67669148      -0.15720703
Si       4.06854278       1.35927244       4.13409764      -0.75290316       0.37160262       1.44821341
Si       2.70676198       2.77079021       0.01245860       0.44429863       0.50387806       0.68124183
Si       4.13680727       4.15956587       1.37937474       0.30766190       0.36787695       0.71552487
8
Lattice="5.4702 0.0 0.0 0.0 5.4702 0.0 0.0 0.0 5.4702" Properties=species:S:1:pos:R:3:momenta:R:3 time_fs=1680.0 temperature_K=158.6976312639366 pbc="T T T"
Si       0.00371626       0.00913392      -0.08022090       0.00061285      -0.21684226      -1.15907524
Si       1.43225395       1.28596113       1.31360707       0.33891209      -0.30536781      -0.88331397
Si       0.04492948       2.68644028       2.73953043       0.67866749      -1.01877100       0.28898856
Si       1.34453635       4.09902409       4.09284420      -0.70318936      -0.07809581      -0.78078648
Si       2.66879173       0.00161903       2.72676101      -0.54968265       0.61124459       0.18895896
Si       4.04295146       1.37593511       4.17618617      -0.69402099       0.56748672       0.89894313
Si       2.72781959       2.78705498       0.03867286       0.71384729       0.45902006       0.79684050
Si       4.14560118       4.16543145       1.40321916       0.21485329      -0.01867450       0.64944454
8
Lattice="5.4702 0.0 0.0 0.0 5.4702 0.0 0.0 0.0 5.4702" Properties=species:S:1:pos:R:3:momenta:R:3 time_fs=1690.0 temperature_K=109.68036796646612 pbc="T T T"
Si       0.00171056       0.00043457      -0.10990718      -0.13395552      -0.27406517      -0.51267443
Si       1.43275069       1.28639650       1.28274122      -0.29767363       0.30725184      -0.86201812
Si       0.06171939       2.64952789       2.74642762       0.25580027      -1.07866456       0.08738083
Si       1.32440185       4.09262059       4.06560552      -0.40234827      -0.29258709      -0.74503425
Si       2.66216947       0.01978219       2.73980371       0.16479273       0.42154147       0.53286464
Si       4.02148566       1.39740382       4.19437241      -0.50905571       0.63176210       0.12824661
Si       2.75317664       2.80476404       0.06647835       0.68601316       0.57030800       0.76505319
Si       4.15318574       4.15967042       1.42507835       0.23642697      -0.28554660       0.60618152
8
Lattice="5.4702 0.0 0.0 0.0 5.4702 0.0 0.0 0.0 5.4702" Properties=species:S:1:pos:R:3:momenta:R:3 time_fs=1700.0 temperature_K=110.78212420297942 pbc="T T T"
Si      -0.00658993      -0.00963015      -0.11588148      -0.34600037      -0.29803751       0.15289902
Si       1.41389521       1.30461567       1.25550541      -0.72947915       0.68298038      -0.65902969
Si       0.06198089       2.61247673       2.74498834      -0.23810273      -1.00977985      -0.16974281
Si       1.31835731       4.07897427       4.04282880       0.06550089      -0.47289461      -0.53035775
Si       2.67815805       0.03148265       2.76103344       0.70003607       0.25820529       0.62619626
Si       4.00890500       1.41817474       4.18608039      -0.19327805       0.53196260      -0.56414294
Si       2.77282465       2.82712009       0.09002106       0.40501899       0.69594468       0.54797724
Si       4.16306881       4.14738601       1.44602404       0.33630436      -0.38838098       0.59620067
8
Lattice="5.4702 0.0 0.0 0.0 5.4702 0.0 0.0 0.0 5.4702" Properties=species:S:1:pos:R:3:momenta:R:3 time_fs=1710.0 temperature_K=116.72645958198433 pbc="T T T"
Si      -0.02213110      -0.02034045      -0.10153974      -0.52702673      -0.31421163       0.62309828
Si       1.38561473       1.33051220       1.23875545      -0.83224410       0.74834068      -0.27911797
Si       0.04630962       2.58152987       2.73516325      -0.62586307      -0.71669191      -0.37579496
Si       1.32832744       4.06096447       4.02996990       0.47976525      -0.53290536      -0.19183500
Si       2.70713449       0.03840002       2.77978904       0.89660959       0.14015003       0.39742178
Si       4.00852547       1.43342139       4.15896814       0.16955384       0.32920619      -0.91297718
Si       2.78016672       2.85179157       0.10265020       0.00954272       0.68314508       0.14959716
Si       4.17665264       4.13432093       1.46684376       0.42966250      -0.33703310       0.58960789
8
Lattice="5.4702 0.0 0.0 0.0 5.4702 0.0 0.0 0.0 5.4702" Properties=species:S:1:pos:R:3:momenta:R:3 time_fs=1720.0 temperature_K=97.21907312929798 pbc="T T T"
Si      -0.04175412      -0.03145092      -0.07561748      -0.56350342      -0.31532773       0.81147126
Si       1.35910968       1.35396891       1.23643588      -0.64232554       0.55744497       0.14093700
Si       0.02120988       2.56531139       2.72017690      -0.75810419      -0.17317801      -0.45660137
Si       1.34947531       4.04348874       4.02960749       0.68723368      -0.43931574       0.16273037
Si       2.73691376       0.04114815       2.78629820       0.75560246       0.01270754      -0.04662717
Si       4.01993382       1.44072529       4.12763539       0.46176816       0.08314347      -0.80332193
Si       2.77410535       2.87255474       0.09966483      -0.33392136       0.47089833      -0.31646597
Si       4.19160631       4.12485371       1.48639878       0.39325021      -0.19637282       0.50787781
8
Lattice="5.4702 0.0 0.0 0.0 5.4702 0.0 0.0 0.0 5.4702" Properties=species:S:1:pos:R:3:momenta:R:3 time_fs=1730.0 temperature_K=71.19920709776979 pbc="T T T"
Si      -0.05909836      -0.04172588      -0.04779266      -0.39230747      -0.25979918       0.74278966
Si       1.34281347       1.36766729       1.24765165      -0.27041235       0.20979892       0.48131681
Si      -0.00302402       2.57115872       2.70506324      -0.57739064       0.51584854      -0.37951471
Si       1.37322219       4.03219256       4.03999257       0.62370239      -0.17783525       0.40158087
Si       2.75718505       0.03916772       2.77624256       0.37554732      -0.12247269      -0.51481286
Si       4.03893526       1.43884179       4.10707826       0.59478683      -0.19636237      -0.33039016
Si       2.75910693       2.88257870       0.08192198      -0.48247881       0.07374834      -0.66344629
Si       4.20145948       4.12071910       1.50044239       0.12855273      -0.04292632       0.26247667
8
Lattice="5.4702 0.0 0.0 0.0 5.4702 0.0 0.0 0.0 5.4702" Properties=species:S:1:pos:R:3:momenta:R:3 time_fs=1740.0 temperature_K=84.2959179158066 pbc="T T T"
Si      -0.06695060      -0.04874711      -0.02558883      -0.03070933      -0.13060293       0.50957980
Si       1.34063152       1.36838177       1.26868351       0.13861164      -0.15964697       0.70119697
Si      -0.01638522       2.60055483       2.69566237      -0.16044349       1.13322795      -0.12912209
Si       1.39005848       4.03292928       4.05526430       0.30242980       0.24224422       0.43598841
Si       2.76221018       0.03327786       2.75235232      -0.08802353      -0.19895791      -0.80786791
Si       4.05963771       1.42683464       4.10555892       0.56732316      -0.48653966       0.23011234
Si       2.74337890       2.87596358       0.05623741      -0.37627328      -0.47181488      -0.75996259
Si       4.19801904       4.12140514       1.50243001      -0.35291497       0.07209019      -0.17992492
8
Lattice="5.4702 0.0 0.0 0.0 5.4702 0.0 0.0 0.0 5.4702" Properties=species:S:1:pos:R:3:momenta:R:3 time_fs=1750.0 temperature_K=156.78770773835362 pbc="T T T"
Si      -0.06011884      -0.05033138      -0.01251855       0.42591942       0.04356375       0.24485367
Si       1.35113204       1.35804428       1.29536876       0.43058985      -0.39741348       0.80621678
Si      -0.01366212       2.64725334       2.69766869       0.30569793       1.48409916       0.25729845
Si       1.39284585       4.04990892       4.06856740      -0.14575044       0.72433272       0.31025888
Si       2.75196740       0.02639853       2.72333067      -0.47175375      -0.18021833      -0.79581449
Si       4.07765751       1.40564555       4.12053903       0.45721127      -0.70516690       0.56997354
Si       2.73481382       2.84895615       0.03141008      -0.10086010      -1.06643525      -0.63442376
Si       4.17596433       4.12472461       1.48623390      -0.90105419       0.09723834      -0.75836308
8
Lattice="5.4702 0.0 0.0 0.0 5.4702 0.0 0.0 0.0 5.4702" Properties=species:S:1:pos:R:3:momenta:R:3 time_fs=1760.0 temperature_K=238.52016873391278 pbc="T T T"
Si      -0.03779837      -0.04571396      -0.00718367       0.82681615       0.21748177       0.08812084
Si       1.36802411       1.34355573       1.32378668       0.49116601      -0.38255456       0.80035753
Si       0.00298749       2.70078438       2.71345936       0.60089064       1.53006621       0.62457739
Si       1.38124463       4.08200948       4.07706823      -0.47672709       1.07158141       0.19087645
Si       2.73174983       0.02120336       2.70037384      -0.63875732      -0.11740519      -0.47107992
Si       4.09169789       1.37920566       4.14097171       0.35292378      -0.78086735       0.53359648
Si       2.73583652       2.80305974       0.01252144       0.13436771      -1.51668804      -0.44991171
Si       4.13685789       4.12649561       1.44960240      -1.29067988      -0.02161424      -1.31653706
8
Lattice="5.4702 0.0 0.0 0.0 5.4702 0.0 0.0 0.0 5.4702" Properties=species:S:1:pos:R:3:momenta:R:3 time_fs=1770.0 temperature_K=248.09752684973714 pbc="T T T"
Si      -0.00487764      -0.03539702      -0.00407346       1.00650038       0.36829773       0.12355199
Si       1.38247450       1.33463878       1.35022570       0.29697175      -0.08426384       0.69982406
Si       0.02445178       2.75136203       2.73875101       0.56435495       1.32370516       0.77164357
Si       1.36330572       4.12138514       4.08339924      -0.48720198       1.12499537       0.19372425
Si       2.71080127       0.01758903       2.69264715      -0.50774412      -0.10380470       0.04511739
Si       4.10317049       1.35267852       4.15387456       0.31850267      -0.71555797       0.15827496
Si       2.74172809       2.74648064      -0.00089214       0.16206695      -1.66171024      -0.33320249
Si       4.08954579       4.12186287       1.39666794      -1.35345059      -0.25166151      -1.65893374
8
Lattice="5.4702 0.0 0.0 0.0 5.4702 0.0 0.0 0.0 5.4702" Properties=species:S:1:pos:R:3:momenta:R:3 time_fs=1780.0 temperature_K=189.09274135525683 pbc="T T T"
Si       0.02875157      -0.02024840       0.00344271       0.86070530       0.49289720       0.32665297
Si       1.38697087       1.33971113       1.37253346      -0.05087780       0.38577167       0.58386636
Si       0.03842846       2.79107163       2.76371319       0.18736831       0.92237208       0.60544546
Si       1.35116402       4.15699043       4.09194097      -0.16105407       0.86230517       0.30872523
Si       2.69930271       0.01294252       2.70316153      -0.11804117      -0.17152291       0.52832181
Si       4.11510907       1.33031702       4.14996695       0.37926401      -0.54996494      -0.39361608
Si       2.74461183       2.69057129      -0.01200418      -0.02609462      -1.48932901      -0.32062121
Si       4.04626148       4.10924438       1.33784538      -1.07126996      -0.45252926      -1.63877453
8
Lattice="5.4702 0.0 0.0 0.0 5.4702 0.0 0.0 0.0 5.4702" Properties=species:S:1:pos:R:3:momenta:R:3 time_fs=1790.0 temperature_K=144.02096595069276 pbc="T T T"
Si       0.05204920      -0.00147519       0.01933990       0.43763876       0.56831806       0.57600870
Si       1.37930072       1.36100547       1.39235300      -0.36762889       0.80425719       0.57500487
Si       0.03546958       2.81511908       2.77846770      -0.36655723       0.45781201       0.21678657
Si       1.35382243       4.17889220       4.10559164       0.31465312       0.35934176       0.47536589
Si       2.70352493       0.00551341       2.72628753       0.35536414      -0.24673446       0.73189141
Si       4.13045949       1.31491657       4.12687112       0.50373871      -0.32285464      -0.90001209
Si       2.73875782       2.64465165      -0.02460323      -0.31122859      -1.11397474      -0.41721476
Si       4.01721583       4.09197681       1.28629234      -0.56598001      -0.50616518      -1.25783060
8
Lattice="5.4702 0.0 0.0 0.0 5.4702 0.0 0.0 0.0 5.4702" Properties=species:S:1:pos:R:3:momenta:R:3 time_fs=1800.0 temperature_K=146.02601110785238 pbc="T T T"
Si       0.05827162       0.01834064       0.04230427      -0.07839330       0.54520589       0.70556271
Si       1.36326091       1.39315364       1.41442504      -0.51612866       0.98543642       0.70351866
Si       0.01353702       2.82455191       2.77856406      -0.85790784       0.11599374      -0.20101843
Si       1.37163353       4.18087502       4.12509000       0.66204280      -0.24853744       0.63243990
Si       2.72279190      -0.00367468       2.74985785       0.71380376      -0.27058129       0.55651134
Si       4.15022173       1.30811322       4.09004452       0.61747163      -0.06401944      -1.14971482
Si       2.72360687       2.61363271      -0.04207155      -0.53212560      -0.65260697      -0.58638682
Si       4.00727642       4.07560754       1.25238581      -0.00876278      -0.41089092      -0.66091254
8
Lattice="5.4702 0.0 0.0 0.0 5.4702 0.0 0.0 0.0 5.4702" Properties=species:S:1:pos:R:3:momenta:R:3 time_fs=1810.0 temperature_K=152.9150793721745 pbc="T T T"
Si       0.04797783       0.03539706       0.06627166      -0.47605806       0.41604289       0.63150637
Si       1.34552450       1.42643485       1.44170740      -0.46627031       0.86894604       0.84263922
Si      -0.02149315       2.82612861       2.76583154      -1.09078547       0.01829438      -0.49905840
Si       1.39649255       4.16264159       4.14876886       0.70235292      -0.75773898       0.69647087
Si       2.75061672      -0.01317627       2.76210769       0.83151651      -0.27429385       0.11789456
Si       4.17256331       1.31019847       4.05065555       0.63764097       0.17301950      -1.04266702
Si       2.70373150       2.59900570      -0.06506720      -0.56661197      -0.19249912      -0.70598390
Si       4.01518674       4.06396998       1.24032450       0.42821542      -0.25177087      -0.04080170
8
Lattice="5.4702 0.0 0.0 0.0 5.4702 0.0 0.0 0.0 5.4702" Properties=species:S:1:pos:R:3:momenta:R:3 time_fs=1820.0 temperature_K=116.25082291277012 pbc="T T T"
Si       0.02792734       0.04686626       0.08454994      -0.62347314       0.23703273       0.39291870
Si       1.33261424       1.45094780       1.47140022      -0.24846328       0.49779228       0.81620079
Si      -0.05861591       2.82853992       2.74594604      -0.97032581       0.14817070      -0.60080494
Si       1.41692106       4.13167933       4.17132724       0.41497323      -0.94310939       0.54897024
Si       2.77780595      -0.02313396       2.75774435       0.68183344      -0.29857947      -0.35256122
Si       4.19283168       1.31902798       4.02078312       0.48793260       0.30928701      -0.62379333
Si       2.68681198       2.59877958      -0.08887313      -0.35900349       0.14795608      -0.60607116
Si       4.03430366       4.05789309       1.24772221       0.61652645      -0.09854993       0.42514093
8
Lattice="5.4702 0.0 0.0 0.0 5.4702 0.0 0.0 0.0 5.4702" Properties=species:S:1:pos:R:3:momenta:R:3 time_fs=1830.0 temperature_K=54.04367860658569 pbc="T T T"
Si       0.00755023       0.05205096       0.09282238      -0.50051235       0.06290084       0.07367946
Si       1.32928786       1.45959786       1.49585602       0.06615940      -0.01430033       0.54172697
Si      -0.08528373       2.83724061       2.72661524      -0.50227216       0.33924984      -0.46253878
Si       1.42256992       4.10183897       4.18395468      -0.12175700      -0.69414218       0.13249334
Si       2.79597124      -0.03400481       2.73960299       0.33217956      -0.31655383      -0.64120025
Si       4.20435951       1.33017246       4.00880486       0.14170750       0.30629542      -0.05365706
Si       2.68125774       2.60668108      -0.10375765       0.07011454       0.26573238      -0.19563247
Si       4.05488724       4.05702287       1.26670147       0.51438050       0.05081785       0.60512878
8
Lattice="5.4702 0.0 0.0 0.0 5.4702 0.0 0.0 0.0 5.4702" Properties=species:S:1:pos:R:3:momenta:R:3 time_fs=1840.0 temperature_K=52.51844483047987 pbc="T T T"
Si      -0.00484349       0.05155543       0.08967620      -0.18727981      -0.08687698      -0.24881677
Si       1.33708755       1.45011929       1.50701650       0.36752651      -0.51219688       0.07372942
Si      -0.09102250       2.85018545       2.71626173       0.19493273       0.35601581      -0.10054513
Si       1.40781989       4.08645285       4.17900448      -0.70387528      -0.16626683      -0.41471259
Si       2.79997405      -0.04444126       2.71636488      -0.10948513      -0.26420225      -0.63551724
Si       4.20139281       1.33938560       4.01627493      -0.31790850       0.21252410       0.45367765
Si       2.69238769       2.61568760      -0.10028562       0.55189485       0.24591173       0.40385710
Si       4.06780401       4.06165505       1.28628691       0.20419462       0.21509131       0.46832756
8
Lattice="5.4702 0.0 0.0 0.0 5.4702 0.0 0.0 0.0 5.4702" Properties=species:S:1:pos:R:3:momenta:R:3 time_fs=1850.0 temperature_K=129.69605384781187 pbc="T T T"
Si      -0.00504111       0.04629102       0.07600146       0.16919585      -0.20909748      -0.52209864
Si       1.35356612       1.42559805       1.50020677       0.54797432      -0.85486157      -0.46410757
Si      -0.07198435       2.85873956       2.72024962       0.86076629       0.08665062       0.31417118
Si       1.37641707       4.08960803       4.15674957      -1.02585396       0.31730448      -0.81108602
Si       2.78850800      -0.05135119       2.69849325      -0.53413000      -0.11719942      -0.34598559
Si       4.18265225       1.34491665       4.03793040      -0.73296312       0.10665268       0.74149936
Si       2.71720473       2.62508149      -0.07652686       0.81097452       0.32216148       0.92009395
Si       4.06927730       4.07171638       1.29749579      -0.09596391       0.34838921       0.16751334
8
Lattice="5.4702 0.0 0.0 0.0 5.4702 0.0 0.0 0.0 5.4702" Properties=species:S:1:pos:R:3:momenta:R:3 time_fs=1860.0 temperature_K=194.3037020843125 pbc="T T T"
Si       0.00560307       0.03735678       0.05404091       0.40787404      -0.29411682      -0.71936522
Si       1.37335957       1.39314990       1.47512585       0.55358938      -0.95681149      -0.95355010
Si      -0.03486313       2.85353321       2.73558718       1.18456822      -0.41554698       0.50637065
Si       1.34135571       4.10610214       4.12627328      -0.90066739       0.58832770      -0.87016685
Si       2.76413739      -0.05211021       2.69410479      -0.82745735       0.07433514       0.10807189
Si       4.15222739       1.34723917       4.06522713      -0.97014763       0.03413282       0.78216659
Si       2.74482424       2.64034626      -0.03908509       0.70886587       0.57319233       1.16973085
Si       4.06395576       4.08498277       1.29932595      -0.15662513       0.39648731      -0.02325782
8
Lattice="5.4702 0.0 0.0 0.0 5.4702 0.0 0.0 0.0 5.4702" Properties=species:S:1:pos:R:3:momenta:R:3 time_fs=1870.0 temperature_K=196.22673771136334 pbc="T T T"
Si       0.02073698       0.02639072       0.02682068       0.41290104      -0.32117121      -0.81826040
Si       1.39036138       1.36161930       1.43518442       0.39556312      -0.80855121      -1.29872557
Si       0.00518507       2.82814969       2.75140126       1.03083933      -1.04539504       0.34201660
Si       1.31817774       4.12822887       4.09974131      -0.37438956       0.63852348      -0.60342430
Si       2.73344731      -0.04649813       2.70577710      -0.88096475       0.23885331       0.53819220
Si       4.11744405       1.34802311       4.09061334      -0.98245958       0.02330240       0.64912731
Si       2.76337029       2.66575992       0.00164020       0.31624261       0.87447193       1.10661840
Si       4.06187718       4.09892652       1.29942169       0.08226780       0.39996634       0.08445576
8
Lattice="5.4702 0.0 0.0 0.0 5.4702 0.0 0.0 0.0 5.4702" Properties=species:S:1:pos:R:3:momenta:R:3 time_fs=1880.0 temperature_K=183.04341761005793 pbc="T T T"
Si       0.03141931       0.01579669      -0.00173564       0.15872857      -0.27196506      -0.79343915
Si       1.39995189       1.33853914       1.38700924       0.14590319      -0.49518521      -1.41052879
Si       0.03352887       2.78112684       2.75694819       0.56198394      -1.60996101      -0.03814747
Si       1.31673087       4.14752980       4.08577622       0.28393368       0.40904850      -0.19048982
Si       2.70579112      -0.03579042       2.72920153      -0.65648690       0.37221302       0.75180544
Si       4.08561594       1.34981722       4.10980677      -0.81483007       0.09282884       0.44467233
Si       2.76569504       2.70048819       0.03488816      -0.18279877       1.09242960       0.75157555
Si       4.07186697       4.11309255       1.30870552       0.50356636       0.41059131       0.48455190
8
Lattice="5.4702 0.0 0.0 0.0 5.4702 0.0 0.0 0.0 5.4702" Properties=species:S:1:pos:R:3:momenta:R:3 time_fs=1890.0 temperature_K=194.28069803826278 pbc="T T T"
Si       0.02992625       0.00800409      -0.02741746      -0.25651480      -0.17016233      -0.66149580
Si       1.40062636       1.32717006       1.33972017      -0.09973786      -0.16474004      -1.25158636
Si       0.04420455       2.71933852       2.74933402       0.06352047      -1.85405875      -0.37183590
Si       1.33567494       4.15283016       4.08564668       0.74543200      -0.15421143       0.16054358
Si       2.68998687      -0.02028626       2.75452620      -0.22386503       0.51772987       0.64194087
Si       4.06143752       1.35530655       4.12192453      -0.56181984       0.22987386       0.25636174
Si       2.75193201       2.74103054       0.05220262      -0.56732672       1.21342206       0.22782280
Si       4.09681150       4.12720633       1.33466324       0.90031179       0.38214675       0.99824906
8
Lattice="5.4702 0.0 0.0 0.0 5.4702 0.0 0.0 0.0 5.4702" Properties=species:S:1:pos:R:3:momenta:R:3 time_fs=1900.0 temperature_K=211.28741952059784 pbc="T T T"
Si       0.01385320       0.00358462      -0.04742866      -0.64006089      -0.09503843      -0.47930982
Si       1.39387765       1.32574526       1.30163585      -0.26899067       0.06057889      -0.90823018
Si       0.03975790       2.65641708       2.73323566      -0.28624943      -1.67732855      -0.51274282
Si       1.36451232       4.13523513       4.09489891       0.83767175      -0.83907100       0.32970977
Si       2.69060139       0.00026133       2.77111919       0.24759195       0.64519060       0.28019025
Si       4.04624929       1.36631741       4.12850488      -0.31343242       0.40269899       0.13262410
Si       2.72947452       2.78450882       0.05158946      -0.65772520       1.25514456      -0.22974018
Si       4.13227373       4.13853035       1.37704472       1.08119490       0.24782494       1.38749889
8
Lattice="5.4702 0.0 0.0 0.0 5.4702 0.0 0.0 0.0 5.4702" Properties=species:S:1:pos:R:3:momenta:R:3 time_fs=1910.0 temperature_K=183.13191964610647 pbc="T T T"
Si      -0.01241256       0.00008151      -0.06094898      -0.81873364      -0.12653631      -0.29575634
Si       1.38318229       1.32985380       1.27648464      -0.32138454       0.15403905      -0.53785339
Si       0.02650728       2.60582146       2.71587939      -0.43668176      -1.17398895      -0.44748091
Si       1.38978679       4.09759410       4.10526648       0.54582203      -1.23228922       0.20323603
Si       2.70537131       0.02324863       2.77356698       0.55650857       0.63833574      -0.13108912
Si       4.03874906       1.38340773       4.13210245      -0.12966304       0.56906616       0.08567308
Si       2.71027516       2.82675001       0.03981995      -0.37770183       1.11667579      -0.37383177
Si       4.16914067       4.14384276       1.42842909       0.98183422       0.05469774       1.49710243
8
Lattice="5.4702 0.0 0.0 0.0 5.4702 0.0 0.0 0.0 5.4702" Properties=species:S:1:pos:R:3:momenta:R:3 time_fs=1920.0 temperature_K=107.3477073336321 pbc="T T T"
Si      -0.04033754      -0.00657466      -0.06823482      -0.73672581      -0.26735495      -0.12221762
Si       1.37282897       1.33531493       1.26294825      -0.25226947       0.14380902      -0.25525434
Si       0.01165861       2.57624456       2.70388015      -0.37786555      -0.50371183      -0.21628153
Si       1.39895703       4.05559328       4.10483029      -0.05961114      -1.07800462      -0.27975496
Si       2.72635267       0.04276327       2.76343187       0.59717798       0.45207409      -0.41879193
Si       4.03611716       1.40532583       4.13528301      -0.03550271       0.66586409       0.10545038
Si       2.70682054       2.85909267       0.03059728       0.21727926       0.68576129      -0.08718892
Si       4.19820255       4.14284012       1.47786397       0.64751744      -0.09843708       1.27403893
8
Lattice="5.4702 0.0 0.0 0.0 5.4702 0.0 0.0 0.0 5.4702" Properties=species:S:1:pos:R:3:momenta:R:3 time_fs=1930.0 temperature_K=75.2031952171077 pbc="T T T"
Si      -0.06159259      -0.01893699      -0.06964921      -0.45421897      -0.43462131       0.03728516
Si       1.36650233       1.33911129       1.25740054      -0.10109182       0.06492566      -0.07600107
Si       0.00220928       2.57050403       2.70174384      -0.13862342       0.15984198       0.09860324
Si       1.38508691       4.02679155       4.08428748      -0.70384551      -0.53549190      -0.87478859
Si       2.74430417       0.05382877       2.74656724       0.39591929       0.17722990      -0.51167713
Si       4.03549111       1.42819108       4.13988597      -0.00612924       0.60921859       0.15938398
Si       2.72580248       2.87300171       0.03630682       0.83450295       0.11419822       0.41326232
Si       4.21279631       4.13810856       1.51405732       0.17348672      -0.15530115       0.75393210
8
Lattice="5.4702 0.0 0.0 0.0 5.4702 0.0 0.0 0.0 5.4702" Properties=species:S:1:pos:R:3:momenta:R:3 time_fs=1940.0 temperature_K=92.94534558689128 pbc="T T T"
Si      -0.07112037      -0.03603482      -0.06610646      -0.08599187      -0.52264042       0.15551501
Si       1.36592505       1.33956045       1.25702126       0.06472419      -0.03875581       0.05059110
Si       0.00278617       2.58547080       2.71026209       0.16845021       0.65721733       0.36843287
Si       1.35408056       4.01855293       4.04760220      -0.98465658       0.05395468      -1.14083715
Si       2.75235733       0.05560435       2.72985531       0.04981050      -0.06216086      -0.41558763
Si       4.03575460       1.44546643       4.14620387       0.02871404       0.34339467       0.19385072
Si       2.76062480       2.86906990       0.05716206       1.07157193      -0.29749936       0.72374888
Si       4.21019186       4.13290995       1.52859967      -0.31262242      -0.13351024       0.06428619
8
Lattice="5.4702 0.0 0.0 0.0 5.4702 0.0 0.0 0.0 5.4702" Properties=species:S:1:pos:R:3:momenta:R:3 time_fs=1950.0 temperature_K=96.5498351800707 pbc="T T T"
Si      -0.06782891      -0.05382178      -0.05957098       0.26477032      -0.46874575       0.20647841
Si       1.37045195       1.33679577       1.26094467       0.18143956      -0.10869804       0.17644329
Si       0.01259318       2.61328696       2.72529777       0.35669310       0.88340170       0.44996975
Si       1.32232090       4.02970729       4.01060580      -0.74947305       0.57353692      -0.89057930
Si       2.74747156       0.05059228       2.71908902      -0.32292767      -0.20863144      -0.18382700
Si       4.03832877       1.45020355       4.15264261       0.13247091      -0.09149347       0.16068565
Si       2.79485512       2.85483498       0.08271348       0.80991276      -0.48896026       0.67807153
Si       4.19240743       4.12900096       1.51887763      -0.67288594      -0.09040965      -0.59724233
8
Lattice="5.4702 0.0 0.0 0.0 5.4702 0.0 0.0 0.0 5.4702" Properties=species:S:1:pos:R:3:momenta:R:3 time_fs=1960.0 temperature_K=95.79766822873187 pbc="T T T"
Si      -0.05355920      -0.06707464      -0.05229532       0.53380304      -0.26551031       0.20510397
Si       1.37750123       1.33293435       1.26961830       0.20320914      -0.09630265       0.32346873
Si       0.02470814       2.64398079       2.73872454       0.29250912       0.83337618       0.27962291
Si       1.30619973       4.05781872       3.99014289      -0.12958294       1.01252155      -0.23014356
Si       2.73102294       0.04195570       2.71753941      -0.58753808      -0.27367606       0.09364210
Si       4.04586344       1.43867040       4.15652662       0.30644829      -0.55996910       0.05028284
Si       2.81313871       2.83580547       0.10082995       0.19474488      -0.59804059       0.30932731
Si       4.16572501       4.12650921       1.48951362      -0.81359344      -0.05239903      -1.03130430
8
Lattice="5.4702 0.0 0.0 0.0 5.4702 0.0 0.0 0.0 5.4702" Properties=species:S:1:pos:R:3:momenta:R:3 time_fs=1970.0 temperature_K=132.8007509261295 pbc="T T T"
Si      -0.03190165      -0.07095895      -0.04507744       0.68176124       0.06009609       0.21638500
Si       1.38333079       1.33108584       1.28381384       0.11133106       0.00279694       0.49109816
Si       0.03084456       2.67012081       2.74327099       0.04294908       0.66025598      -0.02340539
Si       1.31420236       4.09764713       3.99614686       0.57071131       1.20027292       0.57107728
Si       2.70921508       0.03223401       2.72483208      -0.60999184      -0.26986925       0.30212479
Si       4.05989536       1.41243239       4.15561603       0.49118665      -0.91034594      -0.10702537
Si       2.80711020       2.81269570       0.10152468      -0.53671565      -0.72762712      -0.29931576
Si       4.13790329       4.12534309       1.45047296      -0.75123185      -0.01557961      -1.15093871
8
Lattice="5.4702 0.0 0.0 0.0 5.4702 0.0 0.0 0.0 5.4702" Properties=species:S:1:pos:R:3:momenta:R:3 time_fs=1980.0 temperature_K=194.08237258622924 pbc="T T T"
Si      -0.00756232      -0.06215228      -0.03619906       0.68547735       0.44541071       0.30812203
Si       1.38415551       1.33371749       1.30409146      -0.07645077       0.15260400       0.66870855
Si       0.02772990       2.69119896       2.73804630      -0.20936265       0.56963533      -0.24852862
Si       1.34325161       4.13615627       4.02845311       1.03120068       0.91629141       1.23640959
Si       2.69199842       0.02402862       2.73669860      -0.32451633      -0.18611466       0.34382917
Si       4.07947062       1.37753063       4.14885810       0.61243477      -1.04434465      -0.28088474
Si       2.77739684       2.78510297       0.07897143      -1.11433425      -0.83924311      -0.98434876
Si       4.11415942       4.12501734       1.41168007      -0.60444881      -0.01423903      -1.04330722
8
Lattice="5.4702 0.0 0.0 0.0 5.4702 0.0 0.0 0.0 5.4702" Properties=species:S:1:pos:R:3:momenta:R:3 time_fs=1990.0 temperature_K=236.24901440348034 pbc="T T T"
Si       0.01449729      -0.04047144      -0.02244551       0.55743657       0.77180156       0.48957289
Si       1.37758016       1.34194776       1.33043411      -0.29713773       0.31950100       0.83213869
Si       0.01731750       2.71166800       2.72812913      -0.36905889       0.62077942      -0.28481355
Si       1.38176532       4.15698977       4.07902931       1.10460246       0.23699561       1.59174537
Si       2.68915093       0.01972982       2.74675829       0.18150758      -0.06206836       0.20745006
Si       4.10146575       1.34239985       4.13590386       0.62679963      -0.92025943      -0.45972829
Si       2.73366541       2.75500478       0.03458702      -1.31024888      -0.86954833      -1.50442826
Si       4.09515762       4.12333145       1.37820380      -0.49390074      -0.09720148      -0.87193692
8
Lattice="5.4702 0.0 0.0 0.0 5.4702 0.0 0.0 0.0 5.4702" Properties=species:S:1:pos:R:3:momenta:R:3 time_fs=2000.0 temperature_K=228.134770552214 pbc="T T T"
Si       0.03050067      -0.01056191      -0.00172725       0.34965735       0.89537160       0.68951069
Si       1.36422043       1.35611371       1.36164595      -0.44489051       0.48978755       0.93966455
Si       0.00298290       2.73549220       2.72028899      -0.43685063       0.74682994      -0.13664026
Si       1.41611177       4.15303169       4.13444896       0.79922283      -0.41518615       1.48984064
Si       2.70445399       0.01866317       2.75031235       0.66745557      -0.02430653      -0.00604971
Si       4.12224442       1.31603729       4.11690015       0.55057462      -0.55195060      -0.62007770
Si       2.69127580       2.72437004      -0.02145471      -1.03505954      -0.89623497      -1.61494233
Si       4.07881002       4.11745382       1.35018557      -0.45010968      -0.24431083      -0.74130589
