8
Lattice="5.4709021605 0.0 0.0 0.0 5.4709021605 0.0 0.0 0.0 5.4709021605" Properties=species:S:1:pos:R:3:momenta:R:3 time_fs=0.0 temperature_K=300.0000000000001 pbc="T T T"
Si       0.00000000       0.00000000       0.00000000       0.02002556      -0.15248147       0.86102025
Si       1.36772554       1.36772554       1.36772554      -0.17891388       0.97795914       1.04442787
Si       0.00000000       2.73545108       2.73545108      -0.21861087       1.67179471       0.86712523
Si       1.36772554       4.10317662       4.10317662      -1.15372342      -0.03832433      -0.88234083
Si       2.73545108       0.00000000       2.73545108       0.67374100      -0.03073151      -0.78440535
Si       4.10317662       1.36772554       4.10317662       0.75030077       0.31245433      -0.20338906
Si       2.73545108       2.73545108       0.00000000       1.20699627      -1.57042424      -0.13984422
Si       4.10317662       4.10317662       1.36772554      -1.09981542      -1.17024663      -0.76259388
8
Lattice="5.4709021605 0.0 0.0 0.0 5.4709021605 0.0 0.0 0.0 5.4709021605" Properties=species:S:1:pos:R:3:momenta:R:3 time_fs=10.0 temperature_K=208.90438578518948 pbc="T T T"
Si       0.00033059      -0.00490829       0.02915581      -0.00924534      -0.11755739       0.77971685
Si       1.36191861       1.40071798       1.40343342      -0.14148238       0.87520538       0.97298911
Si      -0.00897044       2.79113084       2.76311672      -0.33372420       1.43205072       0.63895470
Si       1.33211563       4.10298883       4.07579727      -0.75470427       0.06632735      -0.58830897
Si       2.75718481      -0.00099227       2.70935532       0.52054702      -0.02345668      -0.67096384
Si       4.12987099       1.37667288       4.09609869       0.78755148       0.14495976      -0.20197817
Si       2.77308519       2.68286460      -0.00642501       0.82335750      -1.37642484      -0.26329868
Si       4.06717110       4.06423191       1.34217425      -0.89229981      -1.00110430      -0.66711099
8
Lattice="5.4709021605 0.0 0.0 0.0 5.4709021605 0.0 0.0 0.0 5.4709021605" Properties=species:S:1:pos:R:3:momenta:R:3 time_fs=20.0 temperature_K=88.40634755880599 pbc="T T T"
Si      -0.00063027      -0.00768691       0.05307520      -0.03559424      -0.03593033       0.57450943
Si       1.35821292       1.42689332       1.43398227      -0.07295597       0.59656661       0.74721399
Si      -0.02524130       2.83091658       2.77599311      -0.59689743       0.80001979       0.06866552
Si       1.32146872       4.11027962       4.06703921       0.19086272       0.36716572       0.12425055
Si       2.76953522      -0.00145062       2.69073009       0.17142549      -0.00002371      -0.36891638
Si       4.15834303       1.37490553       4.08887210       0.82577102      -0.27168080      -0.21318941
Si       2.78691811       2.64240648      -0.01970233      -0.07686593      -0.90265001      -0.49827905
Si       4.04410005       4.03644248       1.32271683      -0.40574566      -0.55346728      -0.43425465
8
Lattice="5.4709021605 0.0 0.0 0.0 5.4709021605 0.0 0.0 0.0 5.4709021605" Properties=species:S:1:pos:R:3:momenta:R:3 time_fs=30.0 temperature_K=93.88144566237432 pbc="T T T"
Si      -0.00086880      -0.00718007       0.06896212       0.04623583       0.06599733       0.33546646
Si       1.35611202       1.44109530       1.45394407      -0.06293511       0.20285020       0.37228503
Si      -0.04805631       2.84645556       2.76889982      -0.63643721       0.10880982      -0.42178145
Si       1.34440245       4.12761911       4.08389355       1.05006870       0.58154732       0.78993613
Si       2.76958744      -0.00084223       2.68468406      -0.14477700       0.03589101       0.02966520
Si       4.18529698       1.35743495       4.08132137       0.66607339      -0.70753426      -0.21264956
Si       2.76809521       2.62136594      -0.04051370      -0.94658795      -0.28852983      -0.66930642
Si       4.03813749       4.02675792       1.31151520       0.02835936       0.00096841      -0.22361539
8
Lattice="5.4709021605 0.0 0.0 0.0 5.4709021605 0.0 0.0 0.0 5.4709021605" Properties=species:S:1:pos:R:3:momenta:R:3 time_fs=40.0 temperature_K=126.15379415621405 pbc="T T T"
Si       0.00426684      -0.00325503       0.07691504       0.26608137       0.15129673       0.12587630
Si       1.35264708       1.44081679       1.45894359      -0.14894012      -0.21281030      -0.09349070
Si      -0.06421092       2.84087114       2.75137115      -0.21753130      -0.39042261      -0.50843294
Si       1.38773813       4.14741992       4.11726813       1.30906775       0.50570625       1.03650349
Si       2.76179583       0.00099753       2.69250453      -0.26198226       0.06606060       0.40194626
Si       4.20117015       1.32819016       4.07451228       0.19256685      -0.90896604      -0.16949089
Si       2.72675378       2.62202887      -0.06432158      -1.30847740       0.30655147      -0.65264093
Si       4.04254560       4.03563711       1.30551336       0.16921511       0.48258388      -0.14027059
8
Lattice="5.4709021605 0.0 0.0 0.0 5.4709021605 0.0 0.0 0.0 5.4709021605" Properties=species:S:1:pos:R:3:momenta:R:3 time_fs=50.0 temperature_K=113.22870146203037 pbc="T T T"
Si       0.01812995       0.00259354       0.07800662       0.51458536       0.16781666      -0.06557048
Si       1.34540005       1.42728423       1.44766799      -0.25645678      -0.53724428      -0.53552413
Si      -0.06045259       2.82165873       2.73730903       0.43860391      -0.67306197      -0.25867919
Si       1.42802269       4.16111092       4.15088313       0.89376274       0.26909788       0.81276638
Si       2.75355543       0.00338964       2.71092522      -0.18803158       0.06316725       0.61365691
Si       4.19666442       1.29827669       4.06997922      -0.45533875      -0.73550327      -0.08022505
Si       2.68437828       2.64017867      -0.08306343      -1.00952204       0.67775502      -0.37189751
Si       4.04700826       4.05821407       1.30099870       0.06239714       0.76797271      -0.11452694
8
Lattice="5.4709021605 0.0 0.0 0.0 5.4709021605 0.0 0.0 0.0 5.4709021605" Properties=species:S:1:pos:R:3:momenta:R:3 time_fs=60.0 temperature_K=96.37045801218076 pbc="T T T"
Si       0.03794102       0.00732019       0.07169900       0.56427286       0.08635309      -0.30979551
Si       1.33641605       1.40528767       1.42343298      -0.21871787      -0.68727336      -0.81097861
Si      -0.03540439       2.79622483       2.73435767       0.93889267      -0.74732607       0.08598736
Si       1.44500494       4.16649924       4.16982462       0.03442596       0.04522529       0.22425604
Si       2.74892685       0.00483496       2.73226691      -0.08967263       0.01151234       0.55710416
Si       4.17095228       1.28096107       4.06987662      -0.96495062      -0.20415764       0.09261770
Si       2.66196069       2.66531447      -0.08735669      -0.21847401       0.70518990       0.15832783
Si       4.04690904       4.08626405       1.29860536      -0.04577637       0.79047645       0.00248104
8
Lattice="5.4709021605 0.0 0.0 0.0 5.4709021605 0.0 0.0 0.0 5.4709021605" Properties=species:S:1:pos:R:3:momenta:R:3 time_fs=70.0 temperature_K=127.66123593803385 pbc="T T T"
Si       0.05295196       0.00783216       0.05532283       0.22365107      -0.06104989      -0.63571266
Si       1.33320269       1.38153823       1.39414474       0.07751355      -0.64016988      -0.81609219
Si       0.00026016       2.77141669       2.74198726       1.02091143      -0.64985821       0.31859347
Si       1.43035994       4.16394129       4.16505820      -0.82917614      -0.21088279      -0.49003764
Si       2.74559006       0.00384648       2.74674094      -0.13000808      -0.06810334       0.23625190
Si       4.13382199       1.28627845       4.07766338      -1.08377269       0.51869062       0.36325196
Si       2.67005745       2.68722932      -0.07124827       0.65268594       0.54328539       0.74820782
Si       4.04646222       4.11062387       1.30303739       0.06819491       0.56808809       0.27553734
8
Lattice="5.4709021605 0.0 0.0 0.0 5.4709021605 0.0 0.0 0.0 5.4709021605" Properties=species:S:1:pos:R:3:momenta:R:3 time_fs=80.0 temperature_K=199.01675979042088 pbc="T T T"
Si       0.04966634       0.00352611       0.02749766      -0.44266117      -0.16755634      -0.93622518
Si       1.34371679       1.36208825       1.36909965       0.52788098      -0.45955316      -0.59059340
Si       0.03073962       2.75144304       2.75386887       0.65672974      -0.49581171       0.31559610
Si       1.39243846       4.14997946       4.13796824      -1.23760623      -0.60656693      -1.00063468
Si       2.73828745       0.00054131       2.74781342      -0.29733363      -0.10788760      -0.16553377
Si       4.09980512       1.31608165       4.09495067      -0.80965585       1.14159907       0.60175603
Si       2.70310533       2.70470158      -0.03758425       1.14671167       0.49102539       1.12479997
Si       4.05494737       4.12434508       1.31909221       0.45593450       0.20475127       0.65083493
8
Lattice="5.4709021605 0.0 0.0 0.0 5.4709021605 0.0 0.0 0.0 5.4709021605" Properties=species:S:1:pos:R:3:momenta:R:3 time_fs=90.0 temperature_K=245.14917286996464 pbc="T T T"
Si       0.02233020      -0.00226824      -0.00788517      -1.07810566      -0.14070202      -1.04467675
Si       1.36846992       1.34956554       1.35328703       0.83696812      -0.26131694      -0.32568963
Si       0.04297189       2.73557983       2.76090589       0.01968037      -0.43898865       0.04530382
Si       1.35099038       4.12181157       4.10010700      -1.03991429      -0.97160506      -1.08437650
Si       2.72527348      -0.00268406       2.73733010      -0.42338285      -0.06497175      -0.38580708
Si       4.07924313       1.36164146       4.11694727      -0.36042746       1.38647287       0.60428345
Si       2.74361004       2.72400422       0.00364127       1.08082135       0.63984847       1.18197645
Si       4.07981745       4.12505617       1.34837308       0.96436043      -0.14873692       1.00898626
8
Lattice="5.4709021605 0.0 0.0 0.0 5.4709021605 0.0 0.0 0.0 5.4709021605" Properties=species:S:1:pos:R:3:momenta:R:3 time_fs=100.0 temperature_K=218.21030767848245 pbc="T T T"
Si      -0.02065982      -0.00531864      -0.04245294      -1.28538354      -0.03127656      -0.88850588
Si       1.39747626       1.34332655       1.34452817       0.74365794      -0.10244494      -0.20941605
Si       0.03256145       2.71852756       2.75501088      -0.57593412      -0.56532006      -0.39260790
Si       1.32437061       4.08582580       4.06739024      -0.44633106      -1.02013434      -0.72352848
Si       2.71119836      -0.00378844       2.72464881      -0.33677448      -0.00427122      -0.28453529
Si       4.07332733       1.40781115       4.13365667      -0.01831769       1.18785496       0.30877955
Si       2.77403636       2.75037606       0.04216161       0.61861947       0.86634175       0.98717979
Si       4.12039594       4.11594644       1.38776304       1.30046347      -0.33074960       1.20263425
8
Lattice="5.4709021605 0.0 0.0 0.0 5.4709021605 0.0 0.0 0.0 5.4709021605" Properties=species:S:1:pos:R:3:momenta:R:3 time_fs=110.0 temperature_K=139.64758594331823 pbc="T T T"
Si      -0.06072735      -0.00504829      -0.06744859      -0.91559711       0.03116831      -0.51270374
Si       1.41556724       1.34187890       1.33631946       0.23797484       0.00955585      -0.28623675
Si       0.00761456       2.69483283       2.73456608      -0.75459792      -0.79178013      -0.73394170
Si       1.31987508       4.05453144       4.05215115       0.15917368      -0.72677403      -0.13819868
Si       2.70470115      -0.00374522       2.72051233      -0.00152239      -0.00393253       0.07614289
Si       4.07411375       1.44134996       4.13689117       0.00137535       0.69936896      -0.12570922
Si       2.78604223       2.78348807       0.07089723       0.08089135       0.99876635       0.63744852
Si       4.16551983       4.10541879       1.42881764       1.19230219      -0.21637278       1.08319868
8
Lattice="5.4709021605 0.0 0.0 0.0 5.4709021605 0.0 0.0 0.0 5.4709021605" Properties=species:S:1:pos:R:3:momenta:R:3 time_fs=120.0 temperature_K=82.61633133733513 pbc="T T T"
Si      -0.08008217      -0.00416356      -0.07725847      -0.15474570       0.01008637      -0.04762183
Si       1.41251990       1.34293571       1.32365125      -0.40199738       0.03070507      -0.43504781
Si      -0.01330975       2.66409186       2.70775688      -0.35782519      -0.93678143      -0.73542176
Si       1.33203191       4.03660905       4.05662886       0.47668548      -0.29093935       0.35929813
Si       2.71200710      -0.00432855       2.73041835       0.40850703      -0.02492977       0.47447905
Si       4.06976343       1.45566033       4.12621136      -0.28354972       0.11594886      -0.44791925
Si       2.78168418       2.81770034       0.08598449      -0.29324401       0.91576717       0.22215725
Si       4.19809189       4.10420129       1.45931376       0.60616947       0.18014309       0.61007622
8
Lattice="5.4709021605 0.0 0.0 0.0 5.4709021605 0.0 0.0 0.0 5.4709021605" Properties=species:S:1:pos:R:3:momenta:R:3 time_fs=130.0 temperature_K=94.03844004619471 pbc="T T T"
Si      -0.07137117      -0.00440372      -0.07177202       0.62254966      -0.01724142       0.33343786
Si       1.39036090       1.34255267       1.30701379      -0.79623165      -0.07088750      -0.49038810
Si      -0.01431757       2.63248479       2.68683609       0.29746648      -0.80932562      -0.42262732
Si       1.34942187       4.03399747       4.07420940       0.47362210       0.13242839       0.59739837
Si       2.73085770      -0.00482158       2.75132716       0.61387305       0.00699968       0.67301485
Si       4.05400545       1.44997456       4.10882227      -0.58971171      -0.42260953      -0.49489702
Si       2.76801716       2.84454505       0.08676583      -0.45721888       0.57712482      -0.16539930
Si       4.20573214       4.11837725       1.46950395      -0.16434906       0.60351118      -0.03053933
8
Lattice="5.4709021605 0.0 0.0 0.0 5.4709021605 0.0 0.0 0.0 5.4709021605" Properties=species:S:1:pos:R:3:momenta:R:3 time_fs=140.0 temperature_K=110.97617771951778 pbc="T T T"
Si      -0.04058198      -0.00472589      -0.05655980       1.05734310       0.00673477       0.49228694
Si       1.36272602       1.33732394       1.29153055      -0.69229935      -0.22538628      -0.35955003
Si       0.00433501       2.61221681       2.67983001       0.69263655      -0.28459686       0.03316657
Si       1.36307495       4.04493249       4.09507305       0.29091750       0.47505102       0.55046307
Si       2.75022703      -0.00351875       2.77365526       0.42092488       0.06419816       0.54567824
Si       4.03239339       1.42829446       4.09504828      -0.56939117      -0.77224829      -0.24807212
Si       2.75141265       2.85546946       0.07565205      -0.47340886       0.01764673      -0.44823284
Si       4.18911940       4.14271395       1.45847708      -0.72672263       0.71860075      -0.56573983
8
Lattice="5.4709021605 0.0 0.0 0.0 5.4709021605 0.0 0.0 0.0 5.4709021605" Properties=species:S:1:pos:R:3:momenta:R:3 time_fs=150.0 temperature_K=103.21129644708108 pbc="T T T"
Si      -0.00374823      -0.00377197      -0.04035368       0.95774586       0.04421700       0.39777157
Si       1.34761229       1.32799728       1.28453975      -0.11231811      -0.27672793      -0.00016452
Si       0.02823867       2.61581713       2.68911271       0.59524576       0.51145802       0.48353559
Si       1.36948060       4.06563663       4.11008535       0.08149269       0.68034708       0.28094385
Si       2.75591727      -0.00099299       2.78578884      -0.13765031       0.06898894       0.10583050
Si       4.01980916       1.39962420       4.09382745      -0.07829951      -0.81408769       0.19613954
Si       2.73592435       2.84454924       0.05698051      -0.40089552      -0.64438913      -0.59872138
Si       4.15947237       4.16384697       1.43272554      -0.90532085       0.43019370      -0.86533516
8
Lattice="5.4709021605 0.0 0.0 0.0 5.4709021605 0.0 0.0 0.0 5.4709021605" Properties=species:S:1:pos:R:3:momenta:R:3 time_fs=160.0 temperature_K=153.92156127810884 pbc="T T T"
Si       0.02132653      -0.00203581      -0.03013819       0.43189052       0.05070045       0.18777890
Si       1.35637393       1.32062077       1.29389730       0.59045604      -0.10686751       0.55565543
Si       0.04189020       2.64740121       2.71163739       0.15104918       1.25829230       0.76235583
Si       1.36967984       4.09018955       4.11389807      -0.05319542       0.68710815      -0.05846960
Si       2.74018975       0.00095536       2.77958947      -0.72566110       0.04599058      -0.45531037
Si       4.02996646       1.37416713       4.10828610       0.66676348      -0.61899425       0.59538888
Si       2.72400062       2.81155272       0.03490502      -0.27311729      -1.20638276      -0.65195449
Si       4.12927917       4.16985554       1.40063132      -0.78818543      -0.10984696      -0.93544458
8
Lattice="5.4709021605 0.0 0.0 0.0 5.4709021605 0.0 0.0 0.0 5.4709021605" Properties=species:S:1:pos:R:3:momenta:R:3 time_fs=170.0 temperature_K=231.78070153639774 pbc="T T T"
Si       0.02605778      -0.00028071      -0.02552172      -0.12920233       0.05034265       0.11962391
Si       1.38424160       1.32262487       1.32306773       0.89885895       0.24279609       1.07859277
Si       0.03810256       2.69980159       2.73906349      -0.35650850       1.66350399       0.75638031
Si       1.36687164       4.11136825       4.10732852      -0.09441618       0.49844144      -0.28610881
Si       2.71037444       0.00272486       2.75618438      -0.87442020       0.05847026      -0.82696591
Si       4.06433529       1.35678480       4.13127677       1.23563580      -0.37802777       0.64125829
Si       2.71740103       2.76376817       0.01199427      -0.09501810      -1.46350732      -0.65036408
Si       4.10532215       4.15591465       1.36931306      -0.58492943      -0.67201933      -0.83241647
8
Lattice="5.4709021605 0.0 0.0 0.0 5.4709021605 0.0 0.0 0.0 5.4709021605" Properties=species:S:1:pos:R:3:momenta:R:3 time_fs=180.0 temperature_K=214.70127686232186 pbc="T T T"
Si       0.01641692       0.00126753      -0.01824486      -0.34745473       0.02945084       0.34516100
Si       1.41087727       1.33866982       1.36528872       0.50590322       0.68499601       1.26206595
Si       0.01876099       2.75802974       2.76151638      -0.71313692       1.58263088       0.49330891
Si       1.36376707       4.12423995       4.09649876      -0.07437963       0.24055127      -0.29285854
Si       2.68690482       0.00438458       2.72661713      -0.36235039       0.01428597      -0.78880442
Si       4.11076403       1.34745924       4.14755979       1.33141168      -0.15789824       0.21783092
Si       2.71787883       2.71359544      -0.01004313       0.12462213      -1.34738748      -0.60238926
Si       4.08733655       4.12506018       1.34351370      -0.46461537      -1.04662924      -0.63431456
8
Lattice="5.4709021605 0.0 0.0 0.0 5.4709021605 0.0 0.0 0.0 5.4709021605" Properties=species:S:1:pos:R:3:momenta:R:3 time_fs=190.0 temperature_K=163.5406624053709 pbc="T T T"
Si       0.00655482       0.00103914       0.00091364      -0.16542343      -0.04944933       0.76032570
Si       1.41360307       1.37043345       1.40651911      -0.38855124       1.10930479       1.04270916
Si      -0.00893515       2.80546017       2.77210083      -0.82772171       1.07569451       0.10543772
Si       1.36235231       4.12912834       4.08939926       0.00453136       0.05759122      -0.08398178
Si       2.69001161       0.00213162       2.70533606       0.56410566      -0.15450689      -0.38989305
Si       4.15206218       1.34535235       4.14311890       0.97193295       0.02381045      -0.48934446
Si       2.72555003       2.67272281      -0.02974012       0.29363968      -0.95765678      -0.52017129
Si       4.07150760       4.08643861       1.32505879      -0.45251327      -1.10478798      -0.42508200
8
Lattice="5.4709021605 0.0 0.0 0.0 5.4709021605 0.0 0.0 0.0 5.4709021605" Properties=species:S:1:pos:R:3:momenta:R:3 time_fs=200.0 temperature_K=169.38385891038305 pbc="T T T"
Si       0.00638523      -0.00194882       0.03366771       0.14881477      -0.10716509       1.06805468
Si       1.38511351       1.41278011       1.43624676      -1.16652095       1.23774446       0.64927021
Si      -0.03624997       2.83137716       2.76946109      -0.69650497       0.40693756      -0.23526326
Si       1.36481096       4.12940825       4.09178159       0.14442017      -0.02987181       0.22302033
Si       2.72415032      -0.00562278       2.69982201       1.30592610      -0.25688206       0.05419985
Si       4.17660475       1.34734131       4.11471227       0.42771268       0.05448907      -1.07936640
Si       2.73624372       2.64787785      -0.04627649       0.27891639      -0.45778716      -0.42429354
Si       4.05564796       4.05149340       1.31329156      -0.44276419      -0.84746496      -0.25562186
8
Lattice="5.4709021605 0.0 0.0 0.0 5.4709021605 0.0 0.0 0.0 5.4709021605" Properties=species:S:1:pos:R:3:momenta:R:3 time_fs=210.0 temperature_K=142.36374753269712 pbc="T T T"
Si       0.01503949      -0.00513925       0.07138421       0.30585819      -0.05741467       1.01989258
Si       1.33941128       1.45130848       1.45197346      -1.32465534       0.88808250       0.25249273
Si      -0.05561965       2.83563284       2.75770454      -0.39288675      -0.12052793      -0.40181819
Si       1.37275938       4.12757599       4.10429479       0.30928688      -0.06870904       0.47134395
Si       2.77360811      -0.01325712       2.70672035       1.39748704      -0.14912601       0.29913028
Si       4.18315756       1.34674487       4.07323956      -0.02121169      -0.11421605      -1.19598461
Si       2.74234908       2.64025059      -0.05936409       0.03713569       0.00411505      -0.32306716
Si       4.04200123       4.02959009       1.30675367      -0.31101402      -0.38220384      -0.12198959
8
Lattice="5.4709021605 0.0 0.0 0.0 5.4709021605 0.0 0.0 0.0 5.4709021605" Properties=species:S:1:pos:R:3:momenta:R:3 time_fs=220.0 temperature_K=60.478648673466985 pbc="T T T"
Si       0.02491327      -0.00523810       0.10045386       0.22217110       0.05333020       0.58506813
Si       1.30054139       1.47073363       1.45400717      -0.79841614       0.18446571      -0.13396421
Si      -0.06330074       2.82648760       2.74392419      -0.05003762      -0.35133705      -0.34987291
Si       1.38586613       4.12517297       4.12273237       0.42278910      -0.05722107       0.54788973
Si       2.81372202      -0.01509418       2.71786893       0.79536141       0.04036462       0.29870182
Si       4.17780501       1.33886403       4.03775325      -0.24402502      -0.32273886      -0.74562054
Si       2.73755420       2.64631811      -0.06866204      -0.31103151       0.30945014      -0.20182677
Si       4.03560521       4.02546241       1.30462875      -0.03681133       0.14368631      -0.00037525
8
Lattice="5.4709021605 0.0 0.0 0.0 5.4709021605 0.0 0.0 0.0 5.4709021605" Properties=species:S:1:pos:R:3:momenta:R:3 time_fs=230.0 temperature_K=39.4375451777867 pbc="T T T"
Si       0.02876261      -0.00184028       0.10924409      -0.01549629       0.12915557      -0.11067038
Si       1.28838191       1.46331570       1.44315615       0.13514534      -0.59536298      -0.47001389
Si      -0.05962162       2.81382724       2.73534790       0.25435317      -0.34970647      -0.11994207
Si       1.40043704       4.12453779       4.13996725       0.37440338       0.03480001       0.39888529
Si       2.82424553      -0.01150290       2.72527514      -0.22899836       0.14480873       0.10152108
Si       4.16854330       1.32628229       4.02567720      -0.26170270      -0.35625874       0.09187800
Si       2.72209747       2.65944981      -0.07262827      -0.53116518       0.40836975      -0.00755733
Si       4.03986025       4.03863682       1.30666703       0.27346065       0.58419414       0.11589930
8
Lattice="5.4709021605 0.0 0.0 0.0 5.4709021605 0.0 0.0 0.0 5.4709021605" Properties=species:S:1:pos:R:3:momenta:R:3 time_fs=240.0 temperature_K=134.67937635785705 pbc="T T T"
Si       0.02390844       0.00285363       0.09215973      -0.24628372       0.12614641      -0.85095776
Si       1.30923026       1.43166319       1.42285931       1.00362236      -1.15812058      -0.66113088
Si      -0.04561510       2.80224948       2.73599630       0.54818488      -0.32611176       0.14955673
Si       1.40929637       4.12818640       4.14825909       0.09401672       0.17242579       0.04973859
Si       2.79838753      -0.00604533       2.72452975      -1.19278380       0.15907110      -0.13140774
Si       4.15982741       1.31666969       4.04409392      -0.25292027      -0.16068697       0.92021656
Si       2.70421004       2.67315532      -0.06788752      -0.43079660       0.36233106       0.29458490
Si       4.05346154       4.06397411       1.31269589       0.47696042       0.82494496       0.22939960
8
Lattice="5.4709021605 0.0 0.0 0.0 5.4709021605 0.0 0.0 0.0 5.4709021605" Properties=species:S:1:pos:R:3:momenta:R:3 time_fs=250.0 temperature_K=230.07320134746826 pbc="T T T"
Si       0.01346871       0.00622257       0.05255145      -0.31497583       0.05773235      -1.34934993
Si       1.35248985       1.38699840       1.39867010       1.35745441      -1.32252868      -0.70646248
Si      -0.02139771       2.78946058       2.74451994       0.82621141      -0.43016459       0.31091211
Si       1.40509112       4.13552846       4.14265345      -0.34613129       0.21789731      -0.36542887
Si       2.74753969      -0.00065894       2.71812180      -1.58883452       0.14399337      -0.19355627
Si       4.14865906       1.31672961       4.08485324      -0.42415732       0.18118170       1.31127678
Si       2.69575668       2.68494725      -0.05153238      -0.01212013       0.32947056       0.63646421
Si       4.07109908       4.09347855       1.32286888       0.50255327       0.82241799       0.35614442
8
Lattice="5.4709021605 0.0 0.0 0.0 5.4709021605 0.0 0.0 0.0 5.4709021605" Properties=species:S:1:pos:R:3:momenta:R:3 time_fs=260.0 temperature_K=217.71327296656648 pbc="T T T"
Si       0.00421514       0.00643982       0.00331033      -0.19063132      -0.04840964      -1.38133828
Si       1.39593830       1.34420775       1.37361006       1.01724796      -1.05718525      -0.73505267
Si       0.01044149       2.77069345       2.75550531       0.95355792      -0.65810135       0.28119183
Si       1.38577398       4.14074235       4.12415752      -0.72585299       0.03839701      -0.65721515
Si       2.69650181       0.00328902       2.71415646      -1.20574026       0.06669433       0.01057912
Si       4.12805820       1.33003303       4.12845391      -0.76672438       0.57974525       1.08162986
Si       2.70456770       2.69820674      -0.02441467       0.50681324       0.46407351       0.89057635
Si       4.08720987       4.11909432       1.33792756       0.41132983       0.61478614       0.50962894
8
Lattice="5.4709021605 0.0 0.0 0.0 5.4709021605 0.0 0.0 0.0 5.4709021605" Properties=species:S:1:pos:R:3:momenta:R:3 time_fs=270.0 temperature_K=168.20015505925926 pbc="T T T"
Si       0.00037160       0.00308393      -0.03893365      -0.04836165      -0.13181184      -0.98074993
Si       1.41821711       1.31660730       1.34666453       0.22241591      -0.49334223      -0.80436798
Si       0.04156089       2.74291246       2.76162222       0.76432771      -0.92920820       0.03392155
Si       1.35794226       4.13577801       4.09972431      -0.79951825      -0.34478200      -0.69157810
Si       2.66951572       0.00324884       2.72098957      -0.29197370      -0.06853650       0.38931826
Si       4.09595657       1.35621315       4.15507758      -1.02838558       0.88418275       0.39257156
Si       2.72872261       2.71966667       0.00879974       0.81563651       0.78620219       0.97759431
Si       4.10041973       4.13519612       1.35876219       0.36585904       0.29729583       0.68329033
8
Lattice="5.4709021605 0.0 0.0 0.0 5.4709021605 0.0 0.0 0.0 5.4709021605" Properties=species:S:1:pos:R:3:momenta:R:3 time_fs=280.0 temperature_K=165.83915604810502 pbc="T T T"
Si      -0.00166879      -0.00158368      -0.06346970      -0.11178850      -0.11706352      -0.42278887
Si       1.41256797       1.30965841       1.31875385      -0.48652132       0.07040510      -0.75439763
Si       0.05987932       2.70654370       2.75608458       0.23745704      -1.12594587      -0.36280909
Si       1.33454053       4.11630828       4.07898738      -0.47939220      -0.75436732      -0.45488126
Si       2.67558885      -0.00042126       2.74008135       0.58481160      -0.11517012       0.65852921
Si       4.06027137       1.38866056       4.15503152      -0.94396534       0.91967437      -0.37300781
Si       2.75668399       2.75354384       0.04164925       0.70972668       1.13385229       0.86510712
Si       4.11484324       4.13999663       1.38558825       0.48967203      -0.01138494       0.84424833
8
Lattice="5.4709021605 0.0 0.0 0.0 5.4709021605 0.0 0.0 0.0 5.4709021605" Properties=species:S:1:pos:R:3:momenta:R:3 time_fs=290.0 temperature_K=173.55483420851746 pbc="T T T"
Si      -0.00987807      -0.00429339      -0.06994088      -0.37557157      -0.03496214       0.01847016
Si       1.38989362       1.31880271       1.29677780      -0.72045491       0.40701653      -0.46690257
Si       0.05659988       2.66673175       2.73670080      -0.42006815      -1.10291303      -0.71917704
Si       1.32707082       4.08511599       4.06974595       0.06407567      -0.98633227      -0.06292393
Si       2.70464128      -0.00315238       2.76318211       0.97972840      -0.02720877       0.60525420
Si       4.03406528       1.41750477       4.13253175      -0.51250027       0.69948043      -0.84044120
Si       2.77413723       2.79624271       0.06678712       0.24854791       1.25052421       0.53899200
Si       4.13617644       4.13575433       1.41692182       0.73624292      -0.20560496       0.92672836
8
Lattice="5.4709021605 0.0 0.0 0.0 5.4709021605 0.0 0.0 0.0 5.4709021605" Properties=species:S:1:pos:R:3:momenta:R:3 time_fs=300.0 temperature_K=143.27126944762907 pbc="T T T"
Si      -0.02755586      -0.00435494      -0.06481573      -0.60643079       0.02194578       0.23838378
Si       1.36759793       1.33500891       1.28741354      -0.49558776       0.47726295      -0.06787036
Si       0.03283716       2.63298360       2.70879619      -0.87874169      -0.77753200      -0.82054018
Si       1.33782907       4.05081356       4.07406635       0.50685218      -0.92028261       0.28435767
Si       2.73780506      -0.00235054       2.77913270       0.84038222       0.06059289       0.27357863
Si       4.02567997       1.43649273       4.10198918       0.02668333       0.38179515      -0.82256295
Si       2.77332687       2.83653589       0.07783641      -0.27488813       0.98917500       0.08844707
Si       4.16518629       4.12757726       1.44828784       0.88173063      -0.23295716       0.82620635
8
Lattice="5.4709021605 0.0 0.0 0.0 5.4709021605 0.0 0.0 0.0 5.4709021605" Properties=species:S:1:pos:R:3:momenta:R:3 time_fs=310.0 temperature_K=70.64671683626811 pbc="T T T"
Si      -0.04904025      -0.00344591      -0.05530042      -0.56328490       0.02194614       0.28477015
Si       1.35764105       1.34956105       1.29103267      -0.06322270       0.32361542       0.25009426
Si       0.00057994       2.61498865       2.68344611      -0.87688446      -0.22888001      -0.57205282
Si       1.35806830       4.02460991       4.08676899       0.57374054      -0.52478108       0.38883489
Si       2.75964099      -0.00012948       2.78118428       0.37731034       0.04937292      -0.15510481
Si       4.03401666       1.44422895       4.08002892       0.40546401       0.06191408      -0.37825974
Si       2.75819225       2.86150349       0.07416747      -0.52237061       0.39267323      -0.26140024
Si       4.19360756       4.12138983       1.47137846       0.66924778      -0.09586069       0.44311832
8
Lattice="5.4709021605 0.0 0.0 0.0 5.4709021605 0.0 0.0 0.0 5.4709021605" Properties=species:S:1:pos:R:3:momenta:R:3 time_fs=320.0 temperature_K=30.752620014958378 pbc="T T T"
Si      -0.06280139      -0.00312580      -0.04577021      -0.17026881      -0.00390663       0.25523884
Si       1.36242454       1.35616552       1.30301035       0.30794924       0.04460113       0.40935241
Si      -0.02266817       2.61739985       2.67198036      -0.38533276       0.35936469      -0.05279555
Si       1.37278677       4.01715137       4.09746335       0.20764557       0.12616332       0.17639662
Si       2.76364234       0.00039315       2.76950573      -0.13573561      -0.02088495      -0.48090697
Si       4.05042920       1.44080897       4.07760688       0.48163230      -0.25874011       0.24158497
Si       2.74190101       2.86183702       0.06273966      -0.34341739      -0.38643461      -0.34814449
Si       4.20699218       4.12207640       1.47617037       0.03752746       0.13983715      -0.20072584
8
Lattice="5.4709021605 0.0 0.0 0.0 5.4709021605 0.0 0.0 0.0 5.4709021605" Properties=species:S:1:pos:R:3:momenta:R:3 time_fs=330.0 temperature_K=118.13995493328919 pbc="T T T"
Si      -0.05838917      -0.00346214      -0.03736966       0.43763500      -0.00831705       0.23112892
Si       1.37640812       1.35293704       1.31831358       0.44607560      -0.21262468       0.45334130
Si      -0.02394680       2.63912359       2.68053465       0.30880698       0.86446158       0.53220329
Si       1.37055325       4.03362126       4.09750356      -0.32732688       0.79010450      -0.16850259
Si       2.75208623      -0.00113307       2.75034629      -0.48674267      -0.05443181      -0.57063029
Si       4.06500183       1.42617155       4.09509579       0.33128632      -0.57358912       0.70736172
Si       2.73690382       2.83526795       0.05163321       0.06306401      -1.09528695      -0.28401011
Si       4.19408920       4.13018031       1.45664906      -0.77279836       0.28968353      -0.90089223
8
Lattice="5.4709021605 0.0 0.0 0.0 5.4709021605 0.0 0.0 0.0 5.4709021605" Properties=species:S:1:pos:R:3:momenta:R:3 time_fs=340.0 temperature_K=244.38044687341375 pbc="T T T"
Si      -0.03301727      -0.00312115      -0.02897373       0.97341078       0.03589532       0.25999116
Si       1.39063140       1.34324555       1.33433485       0.33104031      -0.30326308       0.46309918
Si      -0.00397377       2.67625318       2.70705606       0.75847969       1.22704038       0.93340610
Si       1.35294123       4.06898166       4.08783862      -0.60736578       1.16651187      -0.33543693
Si       2.73250398      -0.00256863       2.73242586      -0.59099367      -0.01862051      -0.42031818
Si       4.07373646       1.40143128       4.12248605       0.19110208      -0.82426995       0.78556067
Si       2.74437512       2.78933891       0.04173697       0.31006720      -1.45762388      -0.30915190
Si       4.15550934       4.13914567       1.41580181      -1.36574062       0.17432985      -1.37715010
8
Lattice="5.4709021605 0.0 0.0 0.0 5.4709021605 0.0 0.0 0.0 5.4709021605" Properties=species:S:1:pos:R:3:momenta:R:3 time_fs=350.0 temperature_K=242.3761418553909 pbc="T T T"
Si       0.00528828      -0.00062047      -0.01838388       1.13671083       0.10691754       0.35663342
Si       1.39779884       1.33486813       1.35100136       0.06482775      -0.12712329       0.49690105
Si       0.02257655       2.72185130       2.74122810       0.65834370       1.32331063       0.94509417
Si       1.33401426       4.11053065       4.07774429      -0.38752224       1.14711438      -0.19091745
Si       2.71350249      -0.00225637       2.72252764      -0.45872515       0.03217374      -0.13571835
Si       4.08091987       1.37005827       4.14525234       0.26271713      -0.94283037       0.45804773
Si       2.75402568       2.73846336       0.02820844       0.17462791      -1.38474978      -0.48415486
Si       4.10458051       4.13981162       1.36512819      -1.45097993      -0.15481286      -1.44588570
8
Lattice="5.4709021605 0.0 0.0 0.0 5.4709021605 0.0 0.0 0.0 5.4709021605" Properties=species:S:1:pos:R:3:momenta:R:3 time_fs=360.0 temperature_K=151.8869624256343 pbc="T T T"
Si       0.04079785       0.00393426      -0.00342235       0.82127619       0.14208484       0.50371781
Si       1.39491185       1.33739661       1.36964976      -0.22478052       0.30392341       0.57737844
Si       0.03589709       2.76460542       2.76817806       0.03971489       1.06729837       0.53842727
Si       1.33078133       4.14558211       4.07727380       0.24597002       0.81405911       0.18887936
Si       2.70270957      -0.00091835       2.72262176      -0.13086621       0.03463796       0.12209299
Si       4.09464845       1.33762948       4.15174071       0.54439273      -0.87703172      -0.10582247
Si       2.75285554       2.69603208       0.00708977      -0.27321108      -1.00856656      -0.72648386
Si       4.06010480       4.12844486       1.31957497      -1.02249601      -0.47640541      -1.09818953
8
Lattice="5.4709021605 0.0 0.0 0.0 5.4709021605 0.0 0.0 0.0 5.4709021605" Properties=species:S:1:pos:R:3:momenta:R:3 time_fs=370.0 temperature_K=137.14744953637154 pbc="T T T"
Si       0.05930866       0.00831483       0.01676107       0.21662815       0.09324764       0.64227112
Si       1.38284832       1.35694241       1.39172940      -0.44994130       0.80178962       0.68434378
Si       0.02365572       2.79413615       2.77677262      -0.72174052       0.61149019      -0.04649788
Si       1.35142670       4.16499278       4.09127495       0.89517471       0.26916575       0.59499417
Si       2.70563791      -0.00026181       2.72893991       0.30545210       0.00168686       0.20137691
Si       4.11902223       1.31122806       4.13810958       0.82717654      -0.59742521      -0.64921877
Si       2.73484623       2.66899311      -0.02220541      -0.72561792      -0.53731581      -0.93248503
Si       4.03596072       4.10836095       1.29132436      -0.34713176      -0.64263904      -0.49478430
8
Lattice="5.4709021605 0.0 0.0 0.0 5.4709021605 0.0 0.0 0.0 5.4709021605" Properties=species:S:1:pos:R:3:momenta:R:3 time_fs=380.0 temperature_K=182.1612911867634 pbc="T T T"
Si       0.05660824       0.00961478       0.04048751      -0.33509045      -0.02569571       0.69456213
Si       1.36460658       1.39106693       1.41676314      -0.57511662       1.09610395       0.72465335
Si      -0.01076117       2.80813242       2.76691316      -1.16289834       0.21387747      -0.46658122
Si       1.38826895       4.16373807       4.11639261       1.11417945      -0.32666597       0.78904541
Si       2.72361426      -0.00063015       2.73422655       0.70159190      -0.01896514       0.07346239
Si       4.14972129       1.29780308       4.10907205       0.87608252      -0.15334456      -0.96102720
Si       2.70610841       2.65763049      -0.05607266      -0.84055400      -0.13550433      -0.95990432
Si       4.03453990       4.08535087       1.28492414       0.22180553      -0.64980572       0.10578945
8
Lattice="5.4709021605 0.0 0.0 0.0 5.4709021605 0.0 0.0 0.0 5.4709021605" Properties=species:S:1:pos:R:3:momenta:R:3 time_fs=390.0 temperature_K=148.8778346868573 pbc="T T T"
Si       0.03949625       0.00657311       0.06373747      -0.58349953      -0.13952230       0.60968300
Si       1.34404588       1.42919909       1.44014370      -0.57615422       1.01667004       0.57291275
Si      -0.05103546       2.81116271       2.74843768      -1.04244321      -0.01026658      -0.52387698
Si       1.42223916       4.14512393       4.14209100       0.73213134      -0.66946643       0.61165842
Si       2.75232601      -0.00143495       2.73312379       0.89383909      -0.02689710      -0.13630304
Si       4.17653912       1.30057443       4.07475626       0.60766000       0.29612837      -0.94246425
Si       2.68182727       2.65713177      -0.08543412      -0.46815826       0.06293583      -0.65545551
Si       4.04726825       4.06437639       1.29585070       0.43662477      -0.52958184       0.46384561
8
Lattice="5.4709021605 0.0 0.0 0.0 5.4709021605 0.0 0.0 0.0 5.4709021605" Properties=species:S:1:pos:R:3:momenta:R:3 time_fs=400.0 temperature_K=56.67622032909299 pbc="T T T"
Si       0.01963890       0.00090174       0.08131143      -0.50778900      -0.16563226       0.36877719
Si       1.32633163       1.45771306       1.45416313      -0.40418900       0.55712344       0.19644554
Si      -0.07771992       2.80932215       2.73441681      -0.41748926      -0.07177280      -0.23141655
Si       1.43434574       4.12229246       4.15482203      -0.08113785      -0.56559285       0.07076967
Si       2.78233584      -0.00253079       2.72543997       0.76267148      -0.03464567      -0.28510097
Si       4.18959198       1.31642291       4.04718848       0.11594644       0.56907459      -0.57992035
Si       2.67762162       2.65896700      -0.09787647       0.25990076       0.00943235      -0.01438204
Si       4.06056070       4.04961795       1.31324111       0.27208642      -0.29798681       0.47482751
8
Lattice="5.4709021605 0.0 0.0 0.0 5.4709021605 0.0 0.0 0.0 5.4709021605" Properties=species:S:1:pos:R:3:momenta:R:3 time_fs=410.0 temperature_K=61.96233652293587 pbc="T T T"
Si       0.00583482      -0.00370827       0.08780025      -0.27386649      -0.08271534      -0.01955270
Si       1.31795572       1.46517564       1.45252179      -0.04850349      -0.15582733      -0.29436235
Si      -0.07773942       2.80728269       2.73389895       0.41754057      -0.03774150       0.19866091
Si       1.41679843       4.10850191       4.14613095      -0.87229214      -0.21373696      -0.54384283
Si       2.80166106      -0.00355658       2.71463352       0.29116516      -0.01658771      -0.31107966
Si       4.18431223       1.33727523       4.03713738      -0.40404366       0.58041072       0.03046356
Si       2.69933895       2.65746268      -0.08571141       0.92843704      -0.06951661       0.68574953
Si       4.06454469       4.04427317       1.32629505      -0.03843699      -0.00428527       0.25396354
8
Lattice="5.4709021605 0.0 0.0 0.0 5.4709021605 0.0 0.0 0.0 5.4709021605" Properties=species:S:1:pos:R:3:momenta:R:3 time_fs=420.0 temperature_K=152.90484729056988 pbc="T T T"
Si      -0.00018810      -0.00432983       0.07883824      -0.09388857       0.04651846      -0.50084018
Si       1.32404445       1.44664204       1.43446550       0.39972878      -0.88139419      -0.70983763
Si      -0.05097390       2.80618841       2.74620452       1.04436373      -0.04900151       0.45124601
Si       1.37933739       4.10641994       4.12060405      -1.15978650       0.07237117      -0.83939111
Si       2.80008497      -0.00314080       2.70510448      -0.40088555       0.04600225      -0.21538034
Si       4.16350634       1.35466295       4.04946590      -0.73986895       0.39196857       0.65202046
Si       2.73655211       2.65715831      -0.05349204       1.09392730       0.09962361       1.08825214
Si       4.06034321       4.04910546       1.33151582      -0.14359023       0.27391164       0.07393064
8
Lattice="5.4709021605 0.0 0.0 0.0 5.4709021605 0.0 0.0 0.0 5.4709021605" Properties=species:S:1:pos:R:3:momenta:R:3 time_fs=430.0 temperature_K=200.7103854193197 pbc="T T T"
Si      -0.00272491      -0.00107419       0.05301879      -0.07861819       0.12427322      -0.95803899
Si       1.34504354       1.40676877       1.40549002       0.77145404      -1.33148572      -0.90620078
Si      -0.01091014       2.80103351       2.76082213       1.14855241      -0.29734414       0.31432781
Si       1.34347979       4.11239864       4.09313125      -0.78961524       0.25985517      -0.65333201
Si       2.77397438      -0.00037792       2.70069532      -1.05865752       0.10372457      -0.02213898
Si       4.13612300       1.36411020       4.07964015      -0.77762639       0.15272630       1.01071585
Si       2.76874848       2.66683001      -0.01446463       0.66093855       0.47085369       1.07871781
Si       4.05897235       4.06301746       1.33437345       0.12357234       0.51739692       0.13594929
8
Lattice="5.4709021605 0.0 0.0 0.0 5.4709021605 0.0 0.0 0.0 5.4709021605" Properties=species:S:1:pos:R:3:momenta:R:3 time_fs=440.0 temperature_K=202.6864587333031 pbc="T T T"
Si      -0.00689764       0.00314425       0.01417528      -0.16373107       0.10035731      -1.21325593
Si       1.37472550       1.35893934       1.37343569       0.86293594      -1.32237800      -0.90475393
Si       0.02352030       2.78217912       2.76428653       0.76391933      -0.80825617      -0.14664631
Si       1.32895739       4.12376959       4.07902281      -0.01341321       0.36606947      -0.12233813
Si       2.73047209       0.00307125       2.70451026      -1.33747950       0.07485242       0.25260626
Si       4.11141396       1.36641803       4.11517081      -0.62288262       0.00405630       0.94678621
Si       2.77895650       2.69025791       0.01834095      -0.09453231       0.86017733       0.76088661
Si       4.07155839       4.08492699       1.34376416       0.60518344       0.72512134       0.42671522
8
Lattice="5.4709021605 0.0 0.0 0.0 5.4709021605 0.0 0.0 0.0 5.4709021605" Properties=species:S:1:pos:R:3:momenta:R:3 time_fs=450.0 temperature_K=201.58029572210208 pbc="T T T"
Si      -0.01347018       0.00509865      -0.02760833      -0.19152380       0.00467137      -1.11054425
Si       1.40057688       1.31922309       1.34283821       0.54927160      -0.89511119      -0.84434404
Si       0.04123496       2.74483614       2.75087836       0.26498015      -1.28960714      -0.58335239
Si       1.34103289       4.13487954       4.08433983       0.63822582       0.20751220       0.39194741
Si       2.68780426       0.00384315       2.71884117      -0.99480531      -0.03561044       0.56367733
Si       4.09194162       1.36651461       4.14125653      -0.51559562       0.03400647       0.49265886
Si       2.76375862       2.72596394       0.03754975      -0.71430981       1.16137178       0.33957390
Si       4.09982743       4.11234736       1.36461096       0.96375696       0.81276695       0.75038318
8
Lattice="5.4709021605 0.0 0.0 0.0 5.4709021605 0.0 0.0 0.0 5.4709021605" Properties=species:S:1:pos:R:3:momenta:R:3 time_fs=460.0 temperature_K=177.71218458601132 pbc="T T T"
Si      -0.01876695       0.00340143      -0.05953748      -0.09462404      -0.09726020      -0.67476292
Si       1.40994385       1.29829584       1.31452558      -0.03137322      -0.29920657      -0.76514583
Si       0.04446538       2.69607801       2.72726352      -0.03926329      -1.42817688      -0.70655986
Si       1.36730256       4.13413702       4.10275284       0.76377219      -0.29229869       0.59750763
Si       2.66685472       0.00122342       2.74259821      -0.15204143      -0.09268960       0.75874127
Si       4.07339688       1.37071119       4.14753133      -0.56626318       0.22416537      -0.13850437
Si       2.73479992       2.76957494       0.04345037      -0.84646432       1.29501080       0.03212388
Si       4.13471013       4.13928464       1.39412212       0.96625730       0.69045577       0.89660021
8
Lattice="5.4709021605 0.0 0.0 0.0 5.4709021605 0.0 0.0 0.0 5.4709021605" Properties=species:S:1:pos:R:3:momenta:R:3 time_fs=470.0 temperature_K=137.87130546024207 pbc="T T T"
Si      -0.01977510      -0.00108278      -0.07365167       0.02792150      -0.14707053      -0.13989508
Si       1.39941068       1.29705381       1.29062624      -0.52640026       0.19662475      -0.57617549
Si       0.04082273       2.64977250       2.70517484      -0.14724600      -1.15559614      -0.51439740
Si       1.38818890       4.11383845       4.12150105       0.35919185      -0.83994499       0.40742322
Si       2.67755821      -0.00098902       2.76866901       0.72385880      -0.01628520       0.68161214
Si       4.05206536       1.38257879       4.13313689      -0.63690302       0.44813170      -0.63657426
Si       2.71079740       2.81313889       0.04282808      -0.45024841       1.13682345      -0.01923702
Si       4.16363830       4.15839584       1.42442203       0.64982555       0.37731696       0.79724390
8
Lattice="5.4709021605 0.0 0.0 0.0 5.4709021605 0.0 0.0 0.0 5.4709021605" Properties=species:S:1:pos:R:3:momenta:R:3 time_fs=480.0 temperature_K=99.02721265885013 pbc="T T T"
Si      -0.01817975      -0.00603310      -0.07116973       0.03737678      -0.12547948       0.24197836
Si       1.37761124       1.30952199       1.27600137      -0.64413016       0.47900679      -0.23762679
Si       0.03480922       2.61901142       2.69324134      -0.19754936      -0.56156035      -0.15401801
Si       1.38941348       4.07937916       4.12714195      -0.29992569      -1.05634499      -0.12598213
Si       2.71208428       0.00029799       2.78710380       1.14533226       0.07810247       0.33484013
Si       4.03124688       1.40109246       4.10763380      -0.50650276       0.59214319      -0.74341279
Si       2.70683270       2.84485231       0.04510251       0.24258288       0.62319467       0.17781615
Si       4.17888842       4.16458425       1.44765144       0.22281605      -0.02906231       0.50640508
8
Lattice="5.4709021605 0.0 0.0 0.0 5.4709021605 0.0 0.0 0.0 5.4709021605" Properties=species:S:1:pos:R:3:momenta:R:3 time_fs=490.0 temperature_K=86.54789045519519 pbc="T T T"
Si      -0.01885329      -0.00935611      -0.05975841      -0.09357374      -0.06041899       0.36886248
Si       1.35942013       1.32811391       1.27514859      -0.33582230       0.55203178       0.19832341
Si       0.02660347       2.61225124       2.69436963      -0.27849845       0.18105139       0.20362506
Si       1.36901488       4.04488658       4.11220082      -0.80562844      -0.85649130      -0.69599049
Si       2.74986646       0.00307879       2.79025486       0.91017844       0.05975496      -0.16710728
Si       4.01998016       1.42249703       4.08647599      -0.09705691       0.60519002      -0.40082319
Si       2.72639013       2.85449386       0.05533316       0.81773069      -0.07844884       0.37761753
Si       4.18028454       4.15674118       1.45868184      -0.11732930      -0.40266903       0.11549249
8
Lattice="5.4709021605 0.0 0.0 0.0 5.4709021605 0.0 0.0 0.0 5.4709021605" Properties=species:S:1:pos:R:3:momenta:R:3 time_fs=500.0 temperature_K=106.74194004884733 pbc="T T T"
Si      -0.02506999      -0.01010654      -0.04765882      -0.25183461       0.01862802       0.30166768
Si       1.35664031       1.34620106       1.28995237       0.18482291       0.45943801       0.63992282
Si       0.01508716       2.63059315       2.70554284      -0.37861053       0.83088118       0.39694956
Si       1.33882763       4.02269360       4.08297404      -0.82841909      -0.37592106      -0.88980313
Si       2.77028942       0.00361448       2.77582146       0.21364979      -0.02968183      -0.63265032
Si       4.02603074       1.44097070       4.08248324       0.44387556       0.40672717       0.18465533
Si       2.75824261       2.84043942       0.06797178       0.90923209      -0.69398857       0.28511098
Si       4.17265861       4.13830060       1.45561957      -0.29271613      -0.61608292      -0.28585291
8
Lattice="5.4709021605 0.0 0.0 0.0 5.4709021605 0.0 0.0 0.0 5.4709021605" Properties=species:S:1:pos:R:3:momenta:R:3 time_fs=510.0 temperature_K=140.50142439428606 pbc="T T T"
Si      -0.03469402      -0.00803358      -0.03918368      -0.25918478       0.09867236       0.18943054
Si       1.37086117       1.35913516       1.31855765       0.57997728       0.27241450       0.96422471
Si       0.00060847       2.66661721       2.71926397      -0.43655121       1.16337535       0.35019645
Si       1.31682208       4.02064329       4.05594389      -0.36580111       0.27895404      -0.58016796
Si       2.76445884       0.00160146       2.74899560      -0.51459608      -0.07311079      -0.84463633
Si       4.04961736       1.44762053       4.09809198       0.86700592      -0.07034932       0.66104457
Si       2.78406060       2.80867263       0.07173227       0.50032816      -1.07805272      -0.10431730
Si       4.16097197       4.11644978       1.43930481      -0.37117817      -0.59190342      -0.63577468
8
Lattice="5.4709021605 0.0 0.0 0.0 5.4709021605 0.0 0.0 0.0 5.4709021605" Properties=species:S:1:pos:R:3:momenta:R:3 time_fs=520.0 temperature_K=173.70759023247172 pbc="T T T"
Si      -0.03988456      -0.00350761      -0.03306143       0.01322882       0.15185839       0.19106500
Si       1.39246814       1.36546467       1.35438484       0.57442452       0.10423954       1.03144437
Si      -0.01411446       2.70739223       2.72843855      -0.37963187       1.11068984       0.17062515
Si       1.31569669       4.04240500       4.04606059       0.30406176       0.94486342       0.03974300
Si       2.73873987      -0.00096075       2.72110649      -0.86678905      -0.07323133      -0.68664248
Si       4.08328036       1.43413216       4.12404020       1.00200661      -0.70578716       0.74166681
Si       2.79041730       2.76833865       0.05976508      -0.14972442      -1.17947562      -0.57311889
Si       4.14610313       4.09944213       1.41197216      -0.49757636      -0.35315708      -0.91478295
8
Lattice="5.4709021605 0.0 0.0 0.0 5.4709021605 0.0 0.0 0.0 5.4709021605" Properties=species:S:1:pos:R:3:momenta:R:3 time_fs=530.0 temperature_K=197.07776030748565 pbc="T T T"
Si      -0.03073550       0.00179017      -0.02332568       0.53840609       0.13850995       0.40135978
Si       1.40549902       1.36811796       1.38687187       0.10399764       0.07686868       0.77666790
Si      -0.02395916       2.74157218       2.73222545      -0.15742119       0.82550860       0.07338717
Si       1.33603406       4.08342581       4.05840213       0.80285493       1.32918695       0.63598379
Si       2.71081215      -0.00392438       2.70473349      -0.63111307      -0.10312227      -0.21244564
Si       4.11573193       1.39977265       4.14429625       0.79989339      -1.21254098       0.34439219
Si       2.77452341       2.72931445       0.03312721      -0.72260302      -1.01442064      -0.91917474
Si       4.12480058       4.09263763       1.37637577      -0.73401477      -0.03999030      -1.10017044
8
Lattice="5.4709021605 0.0 0.0 0.0 5.4709021605 0.0 0.0 0.0 5.4709021605" Properties=species:S:1:pos:R:3:momenta:R:3 time_fs=540.0 temperature_K=220.12831246640758 pbc="T T T"
Si      -0.00212456       0.00556886      -0.00326865       1.06609843       0.07523108       0.75212331
Si       1.39723101       1.37252598       1.40653436      -0.57393958       0.18839923       0.34086701
Si      -0.02422207       2.76520342       2.73550568       0.13735237       0.54175386       0.13529257
Si       1.36715983       4.12955363       4.08741310       0.90905134       1.22286787       0.96967980
Si       2.69991139      -0.00809661       2.70690028       0.04971375      -0.12268172       0.31440877
Si       4.13640328       1.35357217       4.14478056       0.36175340      -1.36193219      -0.33339128
Si       2.74344644       2.69913887      -0.00215960      -0.99494860      -0.69952560      -1.06409632
Si       4.09490117       4.09524015       1.33700076      -0.95508111       0.15588747      -1.11488387
8
Lattice="5.4709021605 0.0 0.0 0.0 5.4709021605 0.0 0.0 0.0 5.4709021605" Properties=species:S:1:pos:R:3:momenta:R:3 time_fs=550.0 temperature_K=213.67057178775678 pbc="T T T"
Si       0.03925658       0.00729804       0.02802131       1.20564272       0.02897862       0.99445742
Si       1.36841669       1.38135099       1.41204013      -0.99448802       0.30911579       0.01438492
Si      -0.01605049       2.78103411       2.74233115       0.28951225       0.38731979       0.25260420
Si       1.39578476       4.16394968       4.12243459       0.68977071       0.69367215       0.97887545
Si       2.71416880      -0.01107060       2.72329994       0.72116287      -0.02705592       0.55481345
Si       4.14155406       1.30892953       4.12233416      -0.03142443      -1.13338562      -0.89639246
Si       2.70894283       2.68025425      -0.03900161      -0.92664865      -0.39459152      -1.01093768
Si       4.06063324       4.10096048       1.30124680      -0.95352745       0.13594671      -0.88780531
8
Lattice="5.4709021605 0.0 0.0 0.0 5.4709021605 0.0 0.0 0.0 5.4709021605" Properties=species:S:1:pos:R:3:momenta:R:3 time_fs=560.0 temperature_K=121.45822574338581 pbc="T T T"
Si       0.07490023       0.00758100       0.06215602       0.73228430      -0.02070206       0.88963278
Si       1.33440784       1.39369757       1.41102542      -0.84991208       0.39384921      -0.02134112
Si      -0.00721572       2.79364878       2.75243433       0.17043507       0.34732063       0.30923796
Si       1.41394111       4.17661548       4.15227315       0.34053831       0.03953454       0.67909266
Si       2.74500071      -0.00950086       2.74062557       0.94287099       0.10618230       0.36686460
Si       4.13814127       1.27790895       4.08750685      -0.09546450      -0.59343146      -1.00240838
Si       2.68157122       2.66987499      -0.07073986      -0.60464644      -0.22961738      -0.77405068
Si       4.03195983       4.10288056       1.27742499      -0.63610565      -0.04313578      -0.44702781
8
Lattice="5.4709021605 0.0 0.0 0.0 5.4709021605 0.0 0.0 0.0 5.4709021605" Properties=species:S:1:pos:R:3:momenta:R:3 time_fs=570.0 temperature_K=34.42940294643771 pbc="T T T"
Si       0.08539976       0.00509844       0.08597726      -0.16671567      -0.12790175       0.42637334
Si       1.31467261       1.40866730       1.41326469      -0.22659197       0.45246333       0.16941217
Si      -0.00642969       2.80575935       2.76275880      -0.14111713       0.34431363       0.26401487
Si       1.41951211       4.16898215       4.16716923      -0.01972983      -0.42786271       0.14565840
Si       2.77316325      -0.00528910       2.74525650       0.58214927       0.10745845      -0.13196831
Si       4.13918116       1.26999378       4.05844252       0.19736617       0.16042153      -0.58600633
Si       2.66851674       2.66211063      -0.09119282      -0.12205109      -0.23689169      -0.37101055
Si       4.01869055       4.09738393       1.27103031      -0.10330976      -0.27200079       0.08352642
8
Lattice="5.4709021605 0.0 0.0 0.0 5.4709021605 0.0 0.0 0.0 5.4709021605" Properties=species:S:1:pos:R:3:momenta:R:3 time_fs=580.0 temperature_K=83.90636929387185 pbc="T T T"
Si       0.06397917      -0.00094285       0.09042369      -1.00438535      -0.19810378      -0.16995667
Si       1.31938357       1.42378934       1.42258344       0.46781697       0.37810347       0.33668685
Si      -0.01665032       2.81719516       2.76982560      -0.41484770       0.29533686       0.12708352
Si       1.41290753       4.15014341       4.16187245      -0.34904735      -0.60547607      -0.43655890
Si       2.78225187      -0.00304135       2.73160042      -0.07006911       0.02315730      -0.61167737
Si       4.15241989       1.28846271       4.04937730       0.52709509       0.85362121       0.07152190
Si       2.67374420       2.65291958      -0.09551119       0.41940302      -0.27388793       0.13114582
Si       4.02467057       4.08418049       1.28253478       0.42403443      -0.47275106       0.55175485
8
Lattice="5.4709021605 0.0 0.0 0.0 5.4709021605 0.0 0.0 0.0 5.4709021605" Properties=species:S:1:pos:R:3:momenta:R:3 time_fs=590.0 temperature_K=171.6390977644971 pbc="T T T"
Si       0.02102510      -0.00699441       0.07562132      -1.34797831      -0.12433529      -0.63941659
Si       1.34328929       1.43257420       1.43396537       0.81886264       0.09348155       0.26570688
Si      -0.03219907       2.82501397       2.77104154      -0.41472739       0.12592575      -0.06074155
Si       1.39611420       4.12897230       4.13878069      -0.59014831      -0.58013210      -0.83743649
Si       2.77037026      -0.00267043       2.70682620      -0.55105626       0.01548957      -0.72766814
Si       4.17168333       1.32505265       4.06146261       0.49456616       1.15811536       0.56733735
Si       2.69679369       2.64520995      -0.08231398       0.86969844      -0.12303536       0.60874980
Si       4.04562967       4.06554825       1.30732274       0.72078303      -0.56550947       0.82346875
8
Lattice="5.4709021605 0.0 0.0 0.0 5.4709021605 0.0 0.0 0.0 5.4709021605" Properties=species:S:1:pos:R:3:momenta:R:3 time_fs=600.0 temperature_K=163.09688740507778 pbc="T T T"
Si      -0.02303097      -0.00876528       0.04882978      -1.07678568       0.02206431      -0.84379203
Si       1.37070967       1.42919963       1.43786725       0.66824204      -0.28657582      -0.08511932
Si      -0.04145748       2.82385900       2.76579114      -0.06243747      -0.22651896      -0.23110561
Si       1.37355985       4.11101247       4.10716151      -0.66530475      -0.42803584      -0.90988430
Si       2.74852002      -0.00136407       2.68598662      -0.62805818       0.05595860      -0.39720687
Si       4.18176086       1.36412520       4.08471787       0.02173002       1.01118021       0.69662568
Si       2.73168500       2.64734973      -0.05450864       1.07201594       0.28190065       0.95222656
Si       4.07095954       4.04728981       1.33686095       0.67059808      -0.42997315       0.81825589
8
Lattice="5.4709021605 0.0 0.0 0.0 5.4709021605 0.0 0.0 0.0 5.4709021605" Properties=species:S:1:pos:R:3:momenta:R:3 time_fs=610.0 temperature_K=128.96327907187353 pbc="T T T"
Si      -0.04939397      -0.00630888       0.01977603      -0.39053862       0.09938474      -0.77962867
Si       1.38573280       1.41337956       1.42580449       0.15615383      -0.59870783      -0.62145929
Si      -0.03439997       2.80693532       2.75556355       0.46997003      -0.76397359      -0.34544706
Si       1.35226725       4.10015433       4.07929255      -0.51197172      -0.18216414      -0.62912982
Si       2.73052583       0.00048596       2.68240375      -0.36062167       0.03771851       0.21737765
Si       4.17085647       1.39252711       4.10600079      -0.65013182       0.58479330       0.47144433
Si       2.76742277       2.66643976      -0.01807457       0.90286905       0.81346950       1.09190639
Si       4.08969529       4.03909332       1.36193990       0.38427093       0.00947951       0.59493646
8
Lattice="5.4709021605 0.0 0.0 0.0 5.4709021605 0.0 0.0 0.0 5.4709021605" Properties=species:S:1:pos:R:3:momenta:R:3 time_fs=620.0 temperature_K=178.7633210532606 pbc="T T T"
Si      -0.05001533      -0.00303421      -0.00401403       0.32451599       0.07579087      -0.57214336
Si       1.38167737       1.38864455       1.39469201      -0.35136861      -0.79919833      -1.13003698
Si      -0.01037530       2.77031072       2.74195614       0.85188678      -1.30526847      -0.42972062
Si       1.34021184       4.09825212       4.06607909      -0.15137093       0.05912568      -0.10159799
Si       2.72430106       0.00096869       2.70093299      -0.00771475      -0.00435255       0.80875415
Si       4.13790652       1.40428671       4.11568138      -1.18547059       0.09327726       0.07720523
Si       2.79020805       2.70308406       0.01876008       0.34240941       1.24522747       0.96524155
Si       4.09879227       4.05019384       1.37861880       0.17711269       0.63539808       0.38229802
8
Lattice="5.4709021605 0.0 0.0 0.0 5.4709021605 0.0 0.0 0.0 5.4709021605" Properties=species:S:1:pos:R:3:momenta:R:3 time_fs=630.0 temperature_K=243.06037497626625 pbc="T T T"
Si      -0.03083610      -0.00135592      -0.02068251       0.69144066       0.02045520      -0.39933476
Si       1.36564932       1.35860282       1.35017671      -0.48303847      -0.89903088      -1.34955567
Si       0.02058054       2.71920702       2.72597340       0.84750584      -1.54527333      -0.47056632
Si       1.34247649       4.10229571       4.07238795       0.27615676       0.13227735       0.44257978
Si       2.72764057       0.00103174       2.73492725       0.15096417       0.02089471       1.05912301
Si       4.09256507       1.40050689       4.11276132      -1.32892553      -0.27383780      -0.20411751
Si       2.78878244       2.75000832       0.04614393      -0.43385565       1.37980128       0.56200026
Si       4.10584815       4.08240992       1.39101843       0.27975222       1.16471348       0.35987121
8
Lattice="5.4709021605 0.0 0.0 0.0 5.4709021605 0.0 0.0 0.0 5.4709021605" Properties=species:S:1:pos:R:3:momenta:R:3 time_fs=640.0 temperature_K=210.8994587760807 pbc="T T T"
Si      -0.00762269      -0.00149638      -0.03361188       0.55631569      -0.02755392      -0.36481651
Si       1.35347708       1.32764589       1.30531066      -0.14642709      -0.83662028      -1.14504346
Si       0.04465238       2.66763728       2.71047349       0.48441702      -1.32898129      -0.39101919
Si       1.35802062       4.10464775       4.09423526       0.57375971      -0.03213814       0.74841751
Si       2.73146611       0.00282590       2.76943538       0.02553151       0.07772082       0.83848923
Si       4.05040405       1.38841507       4.10489272      -1.01161866      -0.36256312      -0.19341228
Si       2.76157771       2.79573615       0.05681257      -1.06107240       1.18584126       0.05610329
Si       4.12073123       4.12729482       1.40515827       0.57909422       1.32429466       0.45128140
8
Lattice="5.4709021605 0.0 0.0 0.0 5.4709021605 0.0 0.0 0.0 5.4709021605" Properties=species:S:1:pos:R:3:momenta:R:3 time_fs=650.0 temperature_K=111.69104520659013 pbc="T T T"
Si       0.00407013      -0.00323281      -0.04746531       0.08439271      -0.06920526      -0.43424004
Si       1.35808076       1.30263372       1.27418126       0.41410829      -0.56041198      -0.59414815
Si       0.05295281       2.63048512       2.70023386      -0.00788905      -0.75177499      -0.17616471
Si       1.37873287       4.09886134       4.11976211       0.54001586      -0.29452925       0.63044358
Si       2.72759680       0.00567854       2.78948970      -0.25259211       0.07126825       0.27297049
Si       4.02531162       1.37886448       4.10222787      -0.39881215      -0.13930566       0.06811492
Si       2.72093952       2.82996516       0.05254806      -1.14781083       0.73259362      -0.24054493
Si       4.14502198       4.16945092       1.42172894       0.76858728       1.01136526       0.47356884
8
Lattice="5.4709021605 0.0 0.0 0.0 5.4709021605 0.0 0.0 0.0 5.4709021605" Properties=species:S:1:pos:R:3:momenta:R:3 time_fs=660.0 temperature_K=48.04676533841804 pbc="T T T"
Si      -0.00126589      -0.00586416      -0.06335278      -0.35140111      -0.07048283      -0.44904781
Si       1.38023250       1.29000540       1.26493782       0.78844118      -0.15202820       0.05876851
Si       0.04565922       2.61674751       2.69887078      -0.37065102      -0.02856350       0.09972032
Si       1.39057053       4.08568212       4.13287253       0.06960979      -0.42373035       0.05500227
Si       2.71505607       0.00713043       2.78814903      -0.42395023       0.00863069      -0.32521016
Si       4.02210201       1.38039490       4.10996320       0.18125867       0.22889235       0.35542885
Si       2.68954632       2.84466239       0.04481081      -0.54152145       0.08588558      -0.13648487
Si       4.17080573       4.19394790       1.43645510       0.64821418       0.35139626       0.34182290
8
Lattice="5.4709021605 0.0 0.0 0.0 5.4709021605 0.0 0.0 0.0 5.4709021605" Properties=species:S:1:pos:R:3:momenta:R:3 time_fs=670.0 temperature_K=81.16523513364976 pbc="T T T"
Si      -0.01653483      -0.00738543      -0.07637700      -0.45674255      -0.00791835      -0.25521051
Si       1.40747987       1.29193180       1.27654511       0.68073452       0.25389857       0.56753575
Si       0.03018625       2.62759887       2.70670287      -0.46867493       0.61950743       0.33267224
Si       1.38102987       4.07139936       4.12158512      -0.61064327      -0.37328224      -0.68500565
Si       2.70168927       0.00640230       2.77001795      -0.28266382      -0.04709289      -0.64993588
Si       4.03443297       1.39358427       4.12460042       0.46618905       0.49080924       0.43596103
Si       2.68770764       2.83610625       0.04568357       0.45243596      -0.54436797       0.18836467
Si       4.18671544       4.19306906       1.44394844       0.21936505      -0.39155380       0.06561837
8
Lattice="5.4709021605 0.0 0.0 0.0 5.4709021605 0.0 0.0 0.0 5.4709021605" Properties=species:S:1:pos:R:3:momenta:R:3 time_fs=680.0 temperature_K=158.23056503098164 pbc="T T T"
Si      -0.02924569      -0.00618494      -0.07877257      -0.22817979       0.07464528       0.14214564
Si       1.42256664       1.30697522       1.30180053       0.12936709       0.59301006       0.83709813
Si       0.01531832       2.65702272       2.72055630      -0.36248419       1.00644832       0.42955761
Si       1.35121447       4.06028606       4.08901108      -1.00973815      -0.25254661      -1.08680078
Si       2.69850474       0.00388717       2.74705096       0.12721967      -0.09871807      -0.60712368
Si       4.05133643       1.41174522       4.13736610       0.46844456       0.50012667       0.25594502
Si       2.71863079       2.81028559       0.05577225       1.23364623      -0.86822212       0.33456741
Si       4.18438078       4.16868944       1.43992183      -0.35827542      -0.95474353      -0.30538936
8
Lattice="5.4709021605 0.0 0.0 0.0 5.4709021605 0.0 0.0 0.0 5.4709021605" Properties=species:S:1:pos:R:3:momenta:R:3 time_fs=690.0 temperature_K=181.1039112165558 pbc="T T T"
Si      -0.03101854      -0.00255685      -0.06588408       0.12724747       0.12481881       0.58617136
Si       1.41520989       1.33228048       1.33275076      -0.53328092       0.83297617       0.90590566
Si       0.00469087       2.69352177       2.73422960      -0.26746233       1.01386700       0.31205534
Si       1.31761883       4.05513249       4.05281052      -0.80026216      -0.01103712      -0.87716832
Si       2.71059477      -0.00062085       2.73040690       0.53762154      -0.15748023      -0.32198660
Si       4.06646507       1.42521927       4.14061268       0.40603442       0.22409916      -0.08539970
Si       2.76624050       2.77930448       0.06512137       1.35813032      -0.86206158       0.14788047
Si       4.16290509       4.13042569       1.42265872      -0.82802833      -1.16518220      -0.66745820
8
Lattice="5.4709021605 0.0 0.0 0.0 5.4709021605 0.0 0.0 0.0 5.4709021605" Properties=species:S:1:pos:R:3:momenta:R:3 time_fs=700.0 temperature_K=151.15559212186102 pbc="T T T"
Si      -0.02149354       0.00195714      -0.03934067       0.38861320       0.12543994       0.89870826
Si       1.38860058       1.36329976       1.36374305      -0.91671074       0.90577183       0.85030406
Si      -0.00563966       2.72406855       2.73995841      -0.35397307       0.69925105      -0.00436582
Si       1.30203020       4.06164065       4.03395659      -0.02160131       0.40071072      -0.13743698
Si       2.73289202      -0.00659691       2.72475090       0.67934763      -0.17072145      -0.01566821
Si       4.08122414       1.42471968       4.13127458       0.46351582      -0.27974373      -0.43613212
Si       2.80442925       2.75147950       0.06311522       0.70519246      -0.72613209      -0.29664289
Si       4.13066351       4.09213811       1.39524839      -0.94438399      -0.95457627      -0.85876630
8
Lattice="5.4709021605 0.0 0.0 0.0 5.4709021605 0.0 0.0 0.0 5.4709021605" Properties=species:S:1:pos:R:3:momenta:R:3 time_fs=710.0 temperature_K=167.5484793646471 pbc="T T T"
Si      -0.00608432       0.00580658      -0.00560570       0.46249515       0.09120556       0.99253646
Si       1.35661970       1.39287467       1.39119695      -0.83533420       0.74407894       0.70437539
Si      -0.02090684       2.74239196       2.73442133      -0.50712990       0.37960101      -0.27672811
Si       1.31775681       4.08245483       4.04479479       0.89511763       0.75048828       0.73785122
Si       2.75422395      -0.01142472       2.72751793       0.49456056      -0.08907045       0.14134696
Si       4.10014873       1.40500476       4.11193272       0.62373156      -0.83678683      -0.63187486
Si       2.80964023       2.72796811       0.04285218      -0.44363975      -0.62886001      -0.86686208
Si       4.10130823       4.06763029       1.36559628      -0.68980103      -0.41065649      -0.80064497
8
Lattice="5.4709021605 0.0 0.0 0.0 5.4709021605 0.0 0.0 0.0 5.4709021605" Properties=species:S:1:pos:R:3:momenta:R:3 time_fs=720.0 temperature_K=228.0000777501612 pbc="T T T"
Si       0.00940359       0.00824468       0.02768797       0.41348091       0.04817081       0.88162831
Si       1.33432660       1.41283316       1.41193752      -0.40290916       0.37131670       0.46766568
Si      -0.03890461       2.75389282       2.72430105      -0.47801093       0.32692628      -0.24278795
Si       1.35995736       4.11032793       4.08186410       1.41933693       0.78686203       1.30363910
Si       2.76552250      -0.01199893       2.73239268       0.14255344       0.06154587       0.10904085
Si       4.12407220       1.36835497       4.09006668       0.71811345      -1.20934518      -0.57626151
Si       2.77503329       2.70721378       0.00388599      -1.45330836      -0.55515687      -1.31377249
Si       4.08329555       4.06383806       1.34057049      -0.35925629       0.16968037      -0.62915198
8
Lattice="5.4709021605 0.0 0.0 0.0 5.4709021605 0.0 0.0 0.0 5.4709021605" Properties=species:S:1:pos:R:3:momenta:R:3 time_fs=730.0 temperature_K=209.99372124830376 pbc="T T T"
Si       0.02286489       0.00914932       0.05441753       0.36323737       0.00203845       0.62929767
Si       1.32908818       1.41822684       1.42331616       0.08716087      -0.05257243       0.18222830
Si      -0.05121162       2.76767072       2.72088786      -0.18552170       0.47700192       0.08125060
Si       1.40912028       4.13474628       4.12961609       1.27278496       0.59429036       1.32781437
Si       2.76476998      -0.00735174       2.73371089      -0.16378051       0.19206537      -0.04530645
Si       4.14795619       1.32475104       4.07395356       0.60990993      -1.21397389      -0.32356028
Si       2.71668137       2.68917565      -0.04415843      -1.73113945      -0.48596821      -1.34790945
Si       4.07343721       4.07633836       1.32096282      -0.25265148       0.48711842      -0.50381475
8
Lattice="5.4709021605 0.0 0.0 0.0 5.4709021605 0.0 0.0 0.0 5.4709021605" Properties=species:S:1:pos:R:3:momenta:R:3 time_fs=740.0 temperature_K=103.96214523958395 pbc="T T T"
Si       0.03523852       0.00820970       0.07090393       0.34457778      -0.05833903       0.30786734
Si       1.33804562       1.41108160       1.42525125       0.37977838      -0.31555949      -0.05550946
Si      -0.04993270       2.78713984       2.73091183       0.27054147       0.62031973       0.48481747
Si       1.44153756       4.15249786       4.16807318       0.49898257       0.44360435       0.78834120
Si       2.75603972       0.00013975       2.72907549      -0.30473358       0.21420046      -0.21286689
Si       4.16451387       1.28819268       4.06802462       0.31496288      -0.81607907      -0.01875124
Si       2.66444321       2.67162594      -0.08444075      -1.12520759      -0.54614816      -0.88155795
Si       4.06282068       4.09381911       1.30490694      -0.37890192       0.45800122      -0.41234047
8
Lattice="5.4709021605 0.0 0.0 0.0 5.4709021605 0.0 0.0 0.0 5.4709021605" Properties=species:S:1:pos:R:3:momenta:R:3 time_fs=750.0 temperature_K=55.516519720221616 pbc="T T T"
Si       0.04620687       0.00504896       0.07599407       0.25942952      -0.11897230      -0.01003489
Si       1.35244570       1.39916965       1.42085907       0.40208695      -0.32573358      -0.17344477
Si      -0.03285363       2.80934964       2.75302094       0.67725748       0.61932679       0.73778581
Si       1.44140965       4.16672279       4.18106397      -0.49218166       0.36082602      -0.06114624
Si       2.74541150       0.00623596       2.71980398      -0.27967840       0.11950594      -0.29769344
Si       4.16937430       1.27076639       4.07182224      -0.03247506      -0.15516593       0.21794366
Si       2.64394270       2.65014805      -0.10265319      -0.01556732      -0.66354013      -0.14886492
Si       4.04676938       4.10526504       1.29279540      -0.51887150       0.16375320      -0.26454522
8
Lattice="5.4709021605 0.0 0.0 0.0 5.4709021605 0.0 0.0 0.0 5.4709021605" Properties=species:S:1:pos:R:3:momenta:R:3 time_fs=760.0 temperature_K=95.89833591361067 pbc="T T T"
Si       0.05114166       0.00043202       0.07101615      -0.01364779      -0.13366103      -0.25965740
Si       1.36400938       1.39034012       1.41450808       0.24062421      -0.16224325      -0.17408252
Si      -0.00585427       2.82812700       2.77883350       0.80382549       0.41818738       0.67724164
Si       1.41144808       4.17548433       4.16533003      -1.12130387       0.09720792      -0.78500595
Si       2.73756730       0.00799623       2.70976846      -0.16203478      -0.01844637      -0.25434216
Si       4.16340998       1.27758463       4.08180375      -0.28101654       0.52713123       0.32993663
Si       2.66179899       2.62875161      -0.09622821       0.96900234      -0.48812253       0.47535524
Si       4.02918535       4.10399054       1.28767472      -0.43544906      -0.24005334      -0.00944549
8
Lattice="5.4709021605 0.0 0.0 0.0 5.4709021605 0.0 0.0 0.0 5.4709021605" Properties=species:S:1:pos:R:3:momenta:R:3 time_fs=770.0 temperature_K=128.14841857167502 pbc="T T T"
Si       0.04313672      -0.00347624       0.05887217      -0.46167729      -0.08001822      -0.42159229
Si       1.36888126       1.38813817       1.40929187       0.04335422       0.02987373      -0.12343983
Si       0.01846552       2.83593755       2.79600514       0.51560089      -0.01069326       0.24427393
Si       1.37100754       4.17150480       4.13129637      -1.07416854      -0.32879054      -1.07304523
Si       2.73396058       0.00538879       2.70333149      -0.05239686      -0.11989986      -0.09899971
Si       4.15210286       1.30508700       4.09324403      -0.32875128       0.99323928       0.29964542
Si       2.70506244       2.62081581      -0.07264161       1.39182035       0.08822648       0.82787610
Si       4.02008956       4.08931060       1.29330702      -0.03378150      -0.57193759       0.34528161
8
Lattice="5.4709021605 0.0 0.0 0.0 5.4709021605 0.0 0.0 0.0 5.4709021605" Properties=species:S:1:pos:R:3:momenta:R:3 time_fs=780.0 temperature_K=146.83984599502915 pbc="T T T"
Si       0.01905807      -0.00482124       0.04225127      -0.88927519       0.00261923      -0.52034766
Si       1.36788123       1.39136163       1.40532185      -0.08505252       0.13127029      -0.11981064
Si       0.02627353       2.82508234       2.79269123      -0.09888003      -0.62882415      -0.45635093
Si       1.34311721       4.15397906       4.09656502      -0.45462406      -0.63584999      -0.83071403
Si       2.73321992       0.00050664       2.70348141       0.00210001      -0.14533279       0.11081786
Si       4.14249643       1.34285248       4.10112934      -0.20469805       1.10361232       0.13177129
Si       2.75121177       2.63685766      -0.04117086       1.14258210       0.82845880       0.93410589
Si       4.02944831       4.06688791       1.31243721       0.58784773      -0.65595372       0.75052821
8
Lattice="5.4709021605 0.0 0.0 0.0 5.4709021605 0.0 0.0 0.0 5.4709021605" Properties=species:S:1:pos:R:3:momenta:R:3 time_fs=790.0 temperature_K=199.72935530025964 pbc="T T T"
Si      -0.01576769      -0.00364662       0.02309495      -1.03698615       0.05596770      -0.56430447
Si       1.36396414       1.39530567       1.39935764      -0.12633433       0.06156417      -0.24734151
Si       0.01242996       2.79245608       2.76510916      -0.63423950      -1.20152517      -1.06553570
Si       1.34060128       4.12947065       4.07712466       0.28273435      -0.74080647      -0.25735386
Si       2.73394000      -0.00383249       2.71091715       0.04282496      -0.09047419       0.30721608
Si       4.13732861       1.37842310       4.10179456      -0.12111321       0.88670437      -0.09041381
Si       2.77952824       2.67684501      -0.00980327       0.43264136       1.40774996       0.82604143
Si       4.06068194       4.04768509       1.34511163       1.16047253      -0.37918037       1.09169184
8
Lattice="5.4709021605 0.0 0.0 0.0 5.4709021605 0.0 0.0 0.0 5.4709021605" Properties=species:S:1:pos:R:3:momenta:R:3 time_fs=800.0 temperature_K=222.8618108024495 pbc="T T T"
Si      -0.04839449      -0.00162754       0.00365848      -0.75605387       0.04848747      -0.53420522
Si       1.35973098       1.39348026       1.38628644      -0.10753874      -0.19240346      -0.52018533
Si      -0.01163503       2.74473232       2.72418515      -0.63156106      -1.46804196      -1.17044391
Si       1.35836301       4.10325024       4.07792337       0.64429746      -0.74516518       0.26692228
Si       2.73673623      -0.00517995       2.72426550       0.12465239       0.01826584       0.44394104
Si       4.13077372       1.40290562       4.09595649      -0.30699679       0.50046062      -0.21604438
Si       2.78121429       2.73091542       0.01485469      -0.30157455       1.61414993       0.57218149
Si       4.10591778       4.04423012       1.38557637       1.33477516       0.22424673       1.15783402
8
Lattice="5.4709021605 0.0 0.0 0.0 5.4709021605 0.0 0.0 0.0 5.4709021605" Properties=species:S:1:pos:R:3:momenta:R:3 time_fs=810.0 temperature_K=181.35850153603877 pbc="T T T"
Si      -0.06458844      -0.00090562      -0.01363089      -0.13351734      -0.01322492      -0.45156172
Si       1.35707702       1.38070530       1.36230295      -0.03242024      -0.54236780      -0.84735386
Si      -0.02502694       2.69355012       2.68994444      -0.06966266      -1.40910411      -0.71359945
Si       1.37935197       4.07871940       4.09213159       0.47372943      -0.63003744       0.48204753
Si       2.74271239      -0.00262341       2.74101576       0.20686782       0.12092094       0.49809758
Si       4.11292968       1.41351601       4.08896127      -0.73391862       0.11990368      -0.14932195
Si       2.76278748       2.78493382       0.03062839      -0.67184729       1.40893078       0.35209859
Si       4.14746332       4.06481087       1.42135298       0.96076889       0.94497887       0.82959328
8
Lattice="5.4709021605 0.0 0.0 0.0 5.4709021605 0.0 0.0 0.0 5.4709021605" Properties=species:S:1:pos:R:3:momenta:R:3 time_fs=820.0 temperature_K=151.18348299644936 pbc="T T T"
Si      -0.05725256      -0.00260763      -0.02828914       0.52889346      -0.07944003      -0.39907191
Si       1.35852066       1.35620425       1.32843778       0.13254767      -0.83514307      -1.05140204
Si      -0.01530708       2.64964970       2.67696454       0.59647531      -1.04988852      -0.02517613
Si       1.38721805       4.06129048       4.10710678      -0.05907484      -0.34002534       0.31456641
Si       2.74954646       0.00245713       2.75780314       0.14777438       0.15462104       0.43991959
Si       4.08015315       1.41287988       4.08771809      -1.09828555      -0.12667552       0.10438943
Si       2.73981199       2.82544869       0.04161758      -0.57235477       0.86234156       0.30723555
Si       4.17001581       4.10738398       1.44134772       0.32402434       1.41420988       0.30953910
8
Lattice="5.4709021605 0.0 0.0 0.0 5.4709021605 0.0 0.0 0.0 5.4709021605" Properties=species:S:1:pos:R:3:momenta:R:3 time_fs=830.0 temperature_K=138.34289548995184 pbc="T T T"
Si      -0.03121263      -0.00585378      -0.04260606       0.88563359      -0.09482960      -0.43337457
Si       1.36747586       1.32481673       1.29245238       0.39106689      -0.91266903      -0.94163130
Si       0.01244984       2.62320921       2.68652035       0.91042758      -0.43235369       0.52725113
Si       1.37510108       4.05578920       4.11124208      -0.60038628       0.01896465      -0.09509493
Si       2.75019000       0.00716286       2.77015580      -0.14963996       0.10225651       0.24409657
Si       4.04075168       1.40686017       4.09742028      -1.07254695      -0.18748588       0.45504343
Si       2.72591028       2.84350035       0.05339303      -0.20582715       0.16888094       0.36595853
Si       4.17204037       4.15722175       1.44412863      -0.15872772       1.33723610      -0.12224884
8
Lattice="5.4709021605 0.0 0.0 0.0 5.4709021605 0.0 0.0 0.0 5.4709021605" Properties=species:S:1:pos:R:3:momenta:R:3 time_fs=840.0 temperature_K=107.77797162567903 pbc="T T T"
Si      -0.00110509      -0.00839385      -0.05897793       0.75474630      -0.03790442      -0.49613159
Si       1.38596026       1.29593540       1.26715560       0.65303877      -0.68854808      -0.44662958
Si       0.04261933       2.61990896       2.70995325       0.73724357       0.22799854       0.74975030
Si       1.34956717       4.06094835       4.10111830      -0.77787612       0.24044538      -0.45204789
Si       2.73743566       0.00914953       2.77380174      -0.58106486       0.01104077      -0.04050476
Si       4.01069120       1.40130517       4.11879311      -0.57972619      -0.11922277       0.73927419
Si       2.72474677       2.83885565       0.06591891       0.11043359      -0.39205596       0.31896807
Si       4.16279118       4.19499727       1.43494349      -0.31679505       0.75824654      -0.37267874
8
Lattice="5.4709021605 0.0 0.0 0.0 5.4709021605 0.0 0.0 0.0 5.4709021605" Properties=species:S:1:pos:R:3:momenta:R:3 time_fs=850.0 temperature_K=78.17981822937708 pbc="T T T"
Si       0.01725358      -0.00767677      -0.07583826       0.26043801       0.08855163      -0.43340101
Si       1.41096669       1.27956039       1.26383284       0.72576284      -0.21712527       0.26787508
Si       0.05957717       2.63679855       2.73458115       0.18599266       0.69033478       0.59984327
Si       1.32641000       4.07015634       4.08268682      -0.47542484       0.25796107      -0.55146763
Si       2.71141797       0.00822138       2.76791667      -0.85151480      -0.05858619      -0.27452947
Si       4.00311074       1.39842111       4.14606968       0.16009743      -0.05711956       0.76315732
Si       2.73122948       2.81967641       0.07346959       0.22758888      -0.65037719       0.08640039
Si       4.15274087       4.20754908       1.41998800      -0.23294019      -0.05363928      -0.45787795
8
Lattice="5.4709021605 0.0 0.0 0.0 5.4709021605 0.0 0.0 0.0 5.4709021605" Properties=species:S:1:pos:R:3:momenta:R:3 time_fs=860.0 temperature_K=88.14094635452783 pbc="T T T"
Si       0.01706149      -0.00201868      -0.08633654      -0.23927277       0.22703212      -0.12157787
Si       1.43209414       1.28210155       1.28468165       0.40721429       0.37202868       0.88154113
Si       0.05397790       2.66454915       2.74864767      -0.50407895       0.84513211       0.17444204
Si       1.31950738       4.07786301       4.06600712       0.09649636       0.17736564      -0.35720641
Si       2.68321321       0.00521458       2.75671337      -0.67102480      -0.11558925      -0.33109136
Si       4.02089903       1.39629815       4.16781137       0.81678997      -0.07689642       0.41824960
Si       2.73899461       2.79668459       0.07086384       0.20223816      -0.62782089      -0.24052466
Si       4.14695873       4.19201413       1.40431800      -0.10836227      -0.80125198      -0.42383247
8
Lattice="5.4709021605 0.0 0.0 0.0 5.4709021605 0.0 0.0 0.0 5.4709021605" Properties=species:S:1:pos:R:3:momenta:R:3 time_fs=870.0 temperature_K=144.87809317610274 pbc="T T T"
Si       0.00443065       0.00678456      -0.08156635      -0.41219354       0.24603498       0.42385390
Si       1.43476533       1.30554943       1.32152211      -0.30163633       0.95553837       1.16297901
Si       0.02645959       2.69301470       2.74634034      -1.01089689       0.75431926      -0.28675716
Si       1.33203020       4.08259930       4.06004038       0.57478326       0.09658252       0.03428877
Si       2.67048589      -0.00016692       2.74691168       0.01242566      -0.19433218      -0.20861605
Si       4.05603879       1.39263581       4.17179681       1.11809928      -0.13161708      -0.22378625
Si       2.74497805       2.77716438       0.05688373       0.14026064      -0.48585177      -0.54873582
Si       4.14351799       4.15512523       1.39077779      -0.12084209      -1.24067411      -0.35322641
8
Lattice="5.4709021605 0.0 0.0 0.0 5.4709021605 0.0 0.0 0.0 5.4709021605" Properties=species:S:1:pos:R:3:momenta:R:3 time_fs=880.0 temperature_K=222.50429205001043 pbc="T T T"
Si      -0.00708614       0.01305418      -0.05586196      -0.19394470       0.08924507       1.03618917
Si       1.41023714       1.34673637       1.36220875      -1.06986753       1.34729941       1.11953816
Si      -0.01133093       2.71637770       2.73157699      -1.06351672       0.58185366      -0.49689569
Si       1.35546520       4.08492598       4.06841884       0.69903432       0.04371743       0.42787235
Si       2.68642484      -0.00794001       2.74242779       0.88952514      -0.23389265      -0.05954268
Si       4.09390800       1.38727084       4.15159536       0.98273732      -0.17615851      -0.91052300
Si       2.74892752       2.76179956       0.03352223       0.08553737      -0.41733076      -0.76801309
Si       4.13616086       4.11048187       1.37881848      -0.32950519      -1.23473365      -0.34862522
8
Lattice="5.4709021605 0.0 0.0 0.0 5.4709021605 0.0 0.0 0.0 5.4709021605" Properties=species:S:1:pos:R:3:momenta:R:3 time_fs=890.0 temperature_K=252.43674442273866 pbc="T T T"
Si      -0.00734186       0.01250473      -0.01148447       0.17674809      -0.11185708       1.44370786
Si       1.36488008       1.39495439       1.39744274      -1.42006409       1.32944488       0.86735009
Si      -0.04260916       2.73455777       2.71614051      -0.66994622       0.48144076      -0.32411296
Si       1.37706080       4.08653424       4.08791204       0.49778243       0.06646810       0.64859244
Si       2.72895976      -0.01501120       2.74126302       1.45024004      -0.14892624      -0.03210900
Si       4.12189563       1.37966785       4.11163295       0.60341328      -0.27492820      -1.29735844
Si       2.75060555       2.74598740       0.00471087      -0.00017861      -0.51449702      -0.85508975
Si       4.11925568       4.07351131       1.36508882      -0.63799493      -0.82714520      -0.45098025
8
Lattice="5.4709021605 0.0 0.0 0.0 5.4709021605 0.0 0.0 0.0 5.4709021605" Properties=species:S:1:pos:R:3:momenta:R:3 time_fs=900.0 temperature_K=187.34274537741953 pbc="T T T"
Si       0.00351483       0.00656917       0.04004993       0.40307290      -0.20381613       1.42262020
Si       1.31909049       1.43426582       1.42125383      -1.08138535       0.85082753       0.47737884
Si      -0.05655678       2.75235715       2.71212910      -0.13531348       0.57425933       0.12057704
Si       1.38907365       4.09103041       4.11098803       0.19037036       0.21096287       0.63280289
Si       2.77984665      -0.01742293       2.73859564       1.33412426       0.01386997      -0.13961310
Si       4.13691924       1.36698542       4.06728468       0.28823751      -0.45753032      -1.14082629
Si       2.74797640       2.72436591      -0.02460095      -0.16336142      -0.73301576      -0.79844156
Si       4.09284199       4.05455552       1.34700623      -0.83574478      -0.25555749      -0.57449802
8
Lattice="5.4709021605 0.0 0.0 0.0 5.4709021605 0.0 0.0 0.0 5.4709021605" Properties=species:S:1:pos:R:3:momenta:R:3 time_fs=910.0 temperature_K=103.97530575904736 pbc="T T T"
Si       0.01771234      -0.00030249       0.08273457       0.36601318      -0.17371215       0.95328973
Si       1.29570116       1.45139950       1.43056153      -0.19982367       0.11411179       0.06784435
Si      -0.05402796       2.77674321       2.72465443       0.24235984       0.82979073       0.57192880
Si       1.39136736       4.10229172       4.13004565      -0.03600506       0.43861263       0.43623544
Si       2.81429030      -0.01448773       2.73051194       0.54421721       0.14195235      -0.32994398
Si       4.14502928       1.34812588       4.03782763       0.21978787      -0.60097986      -0.47913634
Si       2.73863761       2.69484429      -0.04981593      -0.37036823      -0.93872105      -0.62865931
Si       4.06399639       4.05409212       1.32618665      -0.76618114       0.18894556      -0.59155868
8
Lattice="5.4709021605 0.0 0.0 0.0 5.4709021605 0.0 0.0 0.0 5.4709021605" Properties=species:S:1:pos:R:3:momenta:R:3 time_fs=920.0 temperature_K=106.2607956139217 pbc="T T T"
Si       0.02684260      -0.00492278       0.10354966       0.13679806      -0.08573415       0.21397430
Si       1.30577422       1.44333242       1.42805331       0.73923919      -0.53433562      -0.17081376
Si      -0.04195100       2.80907306       2.74907979       0.42196996       0.97250888       0.76715647
Si       1.38838989       4.12133006       4.14083186      -0.10824701       0.63357796       0.18096445
Si       2.81439431      -0.00825261       2.71578922      -0.54103109       0.20759057      -0.49425748
Si       4.15453217       1.32681320       4.03591772       0.33646512      -0.58924611       0.36333294
Si       2.72281123       2.66086233      -0.06786867      -0.51307390      -0.96071041      -0.39787000
Si       4.04191307       4.06447081       1.30735360      -0.47212033       0.35634887      -0.46248692
8
Lattice="5.4709021605 0.0 0.0 0.0 5.4709021605 0.0 0.0 0.0 5.4709021605" Properties=species:S:1:pos:R:3:momenta:R:3 time_fs=930.0 temperature_K=145.2165156575925 pbc="T T T"
Si       0.02706252      -0.00616786       0.09791614      -0.11132155       0.01391799      -0.50639672
Si       1.34224725       1.41786307       1.42123924       1.24216044      -0.85894524      -0.19261755
Si      -0.02585661       2.84042890       2.77422849       0.48384842       0.75191700       0.61829455
Si       1.38523221       4.14486690       4.14319273      -0.05935916       0.68116278      -0.03502487
Si       2.77974724      -0.00030859       2.69814384      -1.34681704       0.23893785      -0.47142042
Si       4.16779102       1.30871647       4.06028781       0.38865154      -0.42151025       0.95740869
Si       2.70494307       2.63114058      -0.07748633      -0.46903230      -0.68725500      -0.15236452
Si       4.03153978       4.07616702       1.29518455      -0.12813035       0.28177488      -0.21787916
8
Lattice="5.4709021605 0.0 0.0 0.0 5.4709021605 0.0 0.0 0.0 5.4709021605" Properties=species:S:1:pos:R:3:momenta:R:3 time_fs=940.0 temperature_K=111.47239299462912 pbc="T T T"
Si       0.02082704      -0.00425639       0.07185149      -0.21170003       0.08586351      -0.91140650
Si       1.38427688       1.38784908       1.41503167       1.03527959      -0.78993771      -0.17623321
Si      -0.00892677       2.85735692       2.78956564       0.47445176       0.16650432       0.23324662
Si       1.38451079       4.16663582       4.13919639       0.01370557       0.52893577      -0.18198051
Si       2.72886495       0.00723999       2.68620970      -1.41997999       0.16457104      -0.16164947
Si       4.17851069       1.29903410       4.09659849       0.17290052      -0.10676279       1.02022377
Si       2.69290642       2.61594155      -0.07860816      -0.18103512      -0.14649096       0.08728387
Si       4.03173647       4.08290540       1.29286125       0.11637770       0.09731680       0.09051543
8
Lattice="5.4709021605 0.0 0.0 0.0 5.4709021605 0.0 0.0 0.0 5.4709021605" Properties=species:S:1:pos:R:3:momenta:R:3 time_fs=950.0 temperature_K=60.626151444693875 pbc="T T T"
Si       0.01447313      -0.00115946       0.03965413      -0.12880256       0.07473582      -0.85572571
Si       1.40714393       1.36682116       1.40707226       0.19973956      -0.36877996      -0.30720050
Si       0.00673592       2.84993033       2.78974952       0.41312726      -0.60054902      -0.22102967
Si       1.38547070       4.17944775       4.13123749       0.02676644       0.16921125      -0.26203083
Si       2.68977708       0.00916835       2.68953885      -0.70793974      -0.07257563       0.37047763
Si       4.17679144       1.30279528       4.12527645      -0.30102730       0.33556851       0.54535565
Si       2.69405337       2.62243775      -0.07134333       0.25456133       0.52628660       0.33021398
Si       4.03826090       4.08326533       1.30152111       0.24357502      -0.06389757       0.39993943
8
Lattice="5.4709021605 0.0 0.0 0.0 5.4709021605 0.0 0.0 0.0 5.4709021605" Properties=species:S:1:pos:R:3:momenta:R:3 time_fs=960.0 temperature_K=139.1641738398193 pbc="T T T"
Si       0.01211108       0.00013928       0.01561781      -0.02336202      -0.00421613      -0.49584627
Si       1.39715864       1.36286353       1.39262966      -0.72530750       0.11880356      -0.51128519
Si       0.01931977       2.81636534       2.77501315       0.29423057      -1.28016468      -0.59856442
Si       1.38534028       4.17629187       4.12164672      -0.04683547      -0.37384699      -0.27552958
Si       2.68324213       0.00274269       2.71110882       0.33217048      -0.25872076       0.81427624
Si       4.15708241       1.32226909       4.13177957      -0.80358342       0.75437442      -0.17871345
Si       2.70979387       2.65232617      -0.05537822       0.61153979       1.16153583       0.58213388
Si       4.04865830       4.07970851       1.32028898       0.36114757      -0.11776524       0.66352880
8
Lattice="5.4709021605 0.0 0.0 0.0 5.4709021605 0.0 0.0 0.0 5.4709021605" Properties=species:S:1:pos:R:3:momenta:R:3 time_fs=970.0 temperature_K=257.07500996440297 pbc="T T T"
Si       0.01049059      -0.00113418       0.00446346      -0.11162422      -0.05910873      -0.17402801
Si       1.36297443       1.37172185       1.37282633      -1.10225861       0.32521363      -0.59464596
Si       0.02617373       2.76450802       2.75004603       0.07777790      -1.60957056      -0.79079908
Si       1.38180716       4.15273344       4.11258207      -0.15207278      -0.95960640      -0.23729748
Si       2.70920485      -0.00558417       2.74167942       1.05608384      -0.17357174       0.85788586
Si       4.12385241       1.35279221       4.11501936      -1.03214389       0.94277213      -0.71511411
Si       2.73336778       2.70106085      -0.03112439       0.67697401       1.57060419       0.78888214
Si       4.06483552       4.07660845       1.34721421       0.58726376      -0.03673252       0.86511665
8
Lattice="5.4709021605 0.0 0.0 0.0 5.4709021605 0.0 0.0 0.0 5.4709021605" Properties=species:S:1:pos:R:3:momenta:R:3 time_fs=980.0 temperature_K=246.8576906964668 pbc="T T T"
Si       0.00181207      -0.00341464       0.00034487      -0.40513705      -0.06628329      -0.11044223
Si       1.32925246       1.38137794       1.35237204      -0.70585853       0.17385917      -0.56569885
Si       0.02350109       2.70947363       2.72272741      -0.24080325      -1.45749012      -0.72520757
Si       1.37536509       4.11188546       4.10509871      -0.20491269      -1.31414693      -0.19476171
Si       2.74897641      -0.00786644       2.76653247       1.09500035       0.04027276       0.51303721
Si       4.08953776       1.38520832       4.08762667      -0.87073161       0.87860885      -0.75672780
Si       2.75322606       2.75743144      -0.00186887       0.41444086       1.57597368       0.85516632
Si       4.09103555       4.07861076       1.37987318       0.91800191       0.16920589       0.98463463
8
Lattice="5.4709021605 0.0 0.0 0.0 5.4709021605 0.0 0.0 0.0 5.4709021605" Properties=species:S:1:pos:R:3:momenta:R:3 time_fs=990.0 temperature_K=158.88110123624688 pbc="T T T"
Si      -0.01763981      -0.00561474      -0.00624343      -0.67942601      -0.05812209      -0.29802293
Si       1.31955121       1.38119490       1.33348095       0.19123225      -0.20523707      -0.51178066
Si       0.00989758       2.66702904       2.70215480      -0.50530327      -0.92878810      -0.42227621
Si       1.36789415       4.06601092       4.09842158      -0.22416230      -1.23043044      -0.19681668
Si       2.77832731      -0.00418395       2.77544654       0.50387969       0.14177324      -0.01243338
Si       4.06568290       1.41281240       4.06823886      -0.47911995       0.68628465      -0.28007385
Si       2.76087639       2.80621624       0.02687730       0.02727302       1.15276586       0.76951643
Si       4.12811675       4.08924169       1.41432989       1.16562656       0.44175395       0.95188728
8
Lattice="5.4709021605 0.0 0.0 0.0 5.4709021605 0.0 0.0 0.0 5.4709021605" Properties=species:S:1:pos:R:3:momenta:R:3 time_fs=1000.0 temperature_K=117.19728445680202 pbc="T T T"
Si      -0.04234910      -0.00728688      -0.02157402      -0.67047989      -0.03320820      -0.57633702
Si       1.34178867       1.36696514       1.31714420       1.01966925      -0.59061468      -0.40911398
Si      -0.00805501       2.64532839       2.69394945      -0.45196149      -0.32727130      -0.05316093
Si       1.35911729       4.03066501       4.09072918      -0.28829109      -0.73641897      -0.24837370
Si       2.78148998       0.00041871       2.76661863      -0.31997858       0.10772042      -0.45650781
Si       4.05517278       1.43223374       4.07094449      -0.15645924       0.40757467       0.44151422
Si       2.75695069       2.83531156       0.05122288      -0.21034867       0.49508866       0.61823441
Si       4.16859118       4.10907079       1.44367166       1.07784972       0.67712940       0.68374481
8
Lattice="5.4709021605 0.0 0.0 0.0 5.4709021605 0.0 0.0 0.0 5.4709021605" Properties=species:S:1:pos:R:3:momenta:R:3 time_fs=1010.0 temperature_K=115.73750583180384 pbc="T T T"
Si      -0.05998027      -0.00765059      -0.04521515      -0.27815037       0.01493530      -0.74138010
Si       1.38435639       1.34204342       1.30572020       1.30127549      -0.79409612      -0.23762695
Si      -0.01724828       2.64188448       2.69729311      -0.02812555       0.08894509       0.22292567
Si       1.34731306       4.01679752       4.08110513      -0.38420916      -0.04595679      -0.29408928
Si       2.75872736       0.00301301       2.74716976      -0.91257829       0.04030429      -0.59198400
Si       4.05166143       1.44022756       4.09711722      -0.08813759       0.03961105       0.99498777
Si       2.74924461       2.84132445       0.06987531      -0.19057501      -0.12439177       0.44295310
Si       4.19863218       4.13506663       1.45964090       0.58050048       0.78064894       0.20421380
8
Lattice="5.4709021605 0.0 0.0 0.0 5.4709021605 0.0 0.0 0.0 5.4709021605" Properties=species:S:1:pos:R:3:momenta:R:3 time_fs=1020.0 temperature_K=108.26450756308272 pbc="T T T"
Si      -0.05888514      -0.00623341      -0.07038082       0.35943233       0.06468250      -0.64806404
Si       1.42498499       1.31457250       1.30033343       0.92112367      -0.72838402      -0.08119329
Si      -0.00904893       2.64878627       2.70798968       0.47766878       0.27210931       0.36556299
Si       1.33322176       4.02670670       4.07115577      -0.39581351       0.58259635      -0.25557074
Si       2.72346266       0.00311271       2.72972726      -1.01565620      -0.03934526      -0.34551298
Si       4.04687592       1.43505269       4.13497311      -0.19812058      -0.32441819       1.07884306
Si       2.74549295       2.82945001       0.08163570      -0.01276252      -0.50448079       0.21962176
Si       4.20660226       4.16125901       1.45727235      -0.13587197       0.67724010      -0.33368676
8
Lattice="5.4709021605 0.0 0.0 0.0 5.4709021605 0.0 0.0 0.0 5.4709021605" Properties=species:S:1:pos:R:3:momenta:R:3 time_fs=1030.0 temperature_K=98.46491794181851 pbc="T T T"
Si      -0.03554838      -0.00315057      -0.08718014       0.93474565       0.11387107      -0.27003268
Si       1.44359343       1.29437371       1.29919207       0.10219571      -0.38474968       0.00892557
Si       0.01291515       2.65923787       2.72115364       0.71160215       0.31119488       0.36161332
Si       1.32202726       4.05437442       4.06466419      -0.20472541       0.94055974      -0.09617387
Si       2.69319739      -0.00005721       2.72608228      -0.65246236      -0.14169833       0.15839200
Si       4.03833931       1.41873360       4.16654083      -0.26333133      -0.58881499       0.65238638
Si       2.74794822       2.80961225       0.08458065       0.13154560      -0.58261904      -0.05938000
Si       4.19023411       4.17958242       1.43767295      -0.75957002       0.33225635      -0.75573071
8
Lattice="5.4709021605 0.0 0.0 0.0 5.4709021605 0.0 0.0 0.0 5.4709021605" Properties=species:S:1:pos:R:3:momenta:R:3 time_fs=1040.0 temperature_K=111.90531955856085 pbc="T T T"
Si       0.00183641       0.00203214      -0.08720916       1.11525130       0.18594947       0.28118638
Si       1.43218428       1.28975740       1.30144075      -0.71231647       0.13692628       0.14262264
Si       0.03561489       2.67020988       2.73164027       0.51448113       0.31995243       0.21899937
Si       1.32144736       4.08780858       4.06547328       0.19909630       0.89993862       0.15189112
Si       2.68043802      -0.00604443       2.74006920      -0.06592762      -0.17885394       0.59732025
Si       4.03124934       1.39526880       4.17714276      -0.09402888      -0.73164576      -0.06729782
Si       2.75242113       2.79114301       0.07699324       0.08523796      -0.45460202      -0.38099948
Si       4.15751505       4.18253110       1.40715613      -1.04179372      -0.17766508      -0.94372246
8
Lattice="5.4709021605 0.0 0.0 0.0 5.4709021605 0.0 0.0 0.0 5.4709021605" Properties=species:S:1:pos:R:3:momenta:R:3 time_fs=1050.0 temperature_K=147.33021725582708 pbc="T T T"
Si       0.03598631       0.00958777      -0.06803594       0.75153800       0.23148726       0.78753671
Si       1.39893796       1.30414485       1.31147459      -1.09387501       0.67704445       0.46589120
Si       0.04477911       2.68235853       2.73572198      -0.03160521       0.39066086       0.01345451
Si       1.33664967       4.11281972       4.07553694       0.65895510       0.48044371       0.42130747
Si       2.68778343      -0.01076375       2.76300034       0.45641262      -0.06840191       0.62868475
Si       4.03494273       1.36933982       4.16248792       0.34209639      -0.71942864      -0.73306659
Si       2.75139198       2.77777852       0.05753821      -0.17111979      -0.32867254      -0.73436703
Si       4.12223530       4.16744102       1.37498245      -0.91240209      -0.66313318      -0.84944103
8
Lattice="5.4709021605 0.0 0.0 0.0 5.4709021605 0.0 0.0 0.0 5.4709021605" Properties=species:S:1:pos:R:3:momenta:R:3 time_fs=1060.0 temperature_K=201.6972764601083 pbc="T T T"
Si       0.05020239       0.01651508      -0.03503909       0.03554981       0.13512177       1.05010504
Si       1.36225437       1.33575438       1.33550835      -0.92206574       1.09854467       0.90788103
Si       0.03221919       2.69879416       2.73326785      -0.67718051       0.56726002      -0.13333930
Si       1.36518691       4.11980059       4.09424973       0.91834688      -0.07306346       0.62817967
Si       2.70955799      -0.01014972       2.77839167       0.74166222       0.09787196       0.18595906
Si       4.05655719       1.34744597       4.12987334       0.89285002      -0.49630303      -1.06181434
Si       2.73984632       2.76593482       0.02602653      -0.47479545      -0.38776849      -1.04810670
Si       4.09688212       4.13861119       1.35042810      -0.51436723      -0.94166345      -0.52886446
8
Lattice="5.4709021605 0.0 0.0 0.0 5.4709021605 0.0 0.0 0.0 5.4709021605" Properties=species:S:1:pos:R:3:momenta:R:3 time_fs=1070.0 temperature_K=242.76612351959048 pbc="T T T"
Si       0.03946626       0.01740541       0.00228770      -0.59788602      -0.09543694       1.04868296
Si       1.33827164       1.37778420       1.37304283      -0.42451959       1.24612468       1.18575397
Si      -0.00000443       2.72303178       2.72839727      -1.10154364       0.82657486      -0.11089910
Si       1.39609507       4.11046957       4.11704090       0.77180039      -0.39440577       0.62579318
Si       2.73638181      -0.00515792       2.77348979       0.74963467       0.16333557      -0.46877382
Si       4.09562750       1.33650438       4.09309419       1.29107638      -0.11814924      -0.97830948
Si       2.72092602       2.74801409      -0.01310675      -0.54578490      -0.66916666      -1.13279988
Si       4.08594261       4.10465498       1.33846056      -0.14277730      -0.95887650      -0.16944783
8
Lattice="5.4709021605 0.0 0.0 0.0 5.4709021605 0.0 0.0 0.0 5.4709021605" Properties=species:S:1:pos:R:3:momenta:R:3 time_fs=1080.0 temperature_K=205.15634642538873 pbc="T T T"
Si       0.01365593       0.01017759       0.03659015      -0.79009300      -0.29823426       0.89640217
Si       1.33230957       1.41853067       1.41389924       0.05660964       1.02387301       1.08300365
Si      -0.03896596       2.75644620       2.72782096      -1.02938253       1.06989759       0.10531713
Si       1.41416224       4.09756077       4.13422976       0.20605670      -0.27002124       0.30832645
Si       2.75977228      -0.00017777       2.74770229       0.56792956       0.10854556      -0.94845415
Si       4.14199947       1.33842114       4.06481022       1.27853191       0.19472381      -0.60701011
Si       2.70645308       2.71777803      -0.04868454      -0.21988382      -1.06090167      -0.84028401
Si       4.08331988       4.07396985       1.33633841      -0.06976847      -0.76788281       0.00269888
8
Lattice="5.4709021605 0.0 0.0 0.0 5.4709021605 0.0 0.0 0.0 5.4709021605" Properties=species:S:1:pos:R:3:momenta:R:3 time_fs=1090.0 temperature_K=131.42764912798148 pbc="T T T"
Si      -0.01015886      -0.00144996       0.06409261      -0.50734108      -0.33331988       0.66442713
Si       1.33944280       1.44610216       1.44491314       0.30526138       0.52090946       0.65141593
Si      -0.06563534       2.79604871       2.73682029      -0.42333065       1.15812756       0.40928251
Si       1.40901083       4.09507878       4.13681602      -0.48214844       0.14751406      -0.15661027
Si       2.77536585       0.00223829       2.71211559       0.31846141       0.03526479      -1.01032774
Si       4.17968198       1.34681947       4.05173270       0.81517103       0.23192072      -0.14015457
Si       2.70790289       2.67558061      -0.06914141       0.30047885      -1.29803320      -0.31847289
Si       4.07709633       4.05228841       1.33535755      -0.32655250      -0.46238351      -0.09956010
8
Lattice="5.4709021605 0.0 0.0 0.0 5.4709021605 0.0 0.0 0.0 5.4709021605" Properties=species:S:1:pos:R:3:momenta:R:3 time_fs=1100.0 temperature_K=97.16080618434452 pbc="T T T"
Si      -0.01917123      -0.01099846       0.08222815       0.00214819      -0.18844099       0.36090316
Si       1.35071607       1.45390849       1.45806951       0.30501213      -0.07381046       0.09856502
Si      -0.06619137       2.83442334       2.75518478       0.38091863       0.98721393       0.60380243
Si       1.38429609       4.10730186       4.12545512      -0.84715414       0.52499897      -0.44131861
Si       2.78169388       0.00295659       2.68181219       0.03696731       0.01600266      -0.66660972
Si       4.19675864       1.35143000       4.05412608       0.16021930      -0.00034959       0.25261597
Si       2.72491493       2.63214121      -0.07195596       0.60971210      -1.10298007       0.12590017
Si       4.05968947       4.04154343       1.32778662      -0.64782352      -0.16263446      -0.33385842
8
Lattice="5.4709021605 0.0 0.0 0.0 5.4709021605 0.0 0.0 0.0 5.4709021605" Properties=species:S:1:pos:R:3:momenta:R:3 time_fs=1110.0 temperature_K=82.94091709408387 pbc="T T T"
Si      -0.01113091      -0.01369217       0.08868438       0.41902759       0.03592069       0.00274015
Si       1.35917055       1.44202350       1.45265203       0.16660618      -0.57612102      -0.38420096
Si      -0.04269766       2.86144552       2.77538749       0.87652926       0.50382473       0.48866006
Si       1.35641801       4.12971754       4.11009665      -0.65039037       0.72843792      -0.37665893
Si       2.77751595       0.00381004       2.66812753      -0.27907730       0.03380061      -0.09725773
Si       4.19272597       1.34590390       4.06716326      -0.34395539      -0.30911257       0.45640083
Si       2.74552528       2.60356465      -0.06291402       0.49656374      -0.47493634       0.35336127
Si       4.03517929       4.03993351       1.31350916      -0.68530371       0.05818598      -0.44304469
8
Lattice="5.4709021605 0.0 0.0 0.0 5.4709021605 0.0 0.0 0.0 5.4709021605" Properties=species:S:1:pos:R:3:momenta:R:3 time_fs=1120.0 temperature_K=80.50212511250685 pbc="T T T"
Si       0.00649655      -0.00916907       0.08242126       0.52951629       0.20354675      -0.35480305
Si       1.36222707       1.41646411       1.43342863       0.01431572      -0.83613684      -0.67771058
Si      -0.01144788       2.86636180       2.78530315       0.82514799      -0.25500562       0.03562194
Si       1.34431029       4.15627575       4.10253823       0.00783144       0.75570380      -0.02480041
Si       2.76251384       0.00498769       2.67493899      -0.56301982       0.02469432       0.46688906
Si       4.17638063       1.33142702       4.08363829      -0.54136579      -0.48133795       0.45623078
Si       2.75548719       2.60111648      -0.04969888       0.03230105       0.34114654       0.37007523
Si       4.01673879       4.04524270       1.30013681      -0.30472689       0.24738901      -0.27150298
8
Lattice="5.4709021605 0.0 0.0 0.0 5.4709021605 0.0 0.0 0.0 5.4709021605" Properties=species:S:1:pos:R:3:momenta:R:3 time_fs=1130.0 temperature_K=131.29155375029936 pbc="T T T"
Si       0.02202275      -0.00112928       0.06469693       0.31237928       0.23032095      -0.64141100
Si       1.36097254       1.38706879       1.40789120      -0.07135609      -0.79732977      -0.74689656
Si       0.01109542       2.84323707       2.77691049       0.44060797      -1.04280499      -0.49831380
Si       1.35745706       4.17923684       4.10869202       0.70617606       0.49609873       0.35610918
Si       2.74011202       0.00497697       2.69828261      -0.67728518      -0.02899103       0.81860600
Si       4.15728122       1.31545968       4.09758968      -0.53367708      -0.38038267       0.32798189
Si       2.74680147       2.62629365      -0.03886756      -0.51391284       1.06362297       0.23183192
Si       4.01696399       4.05756277       1.29751113       0.33706786       0.45946582       0.15209237
8
Lattice="5.4709021605 0.0 0.0 0.0 5.4709021605 0.0 0.0 0.0 5.4709021605" Properties=species:S:1:pos:R:3:momenta:R:3 time_fs=1140.0 temperature_K=197.1671631032119 pbc="T T T"
Si       0.02638668       0.00531118       0.03906058      -0.07035848       0.11908734      -0.79943217
Si       1.35823515       1.36329424       1.38316969      -0.07291427      -0.53791079      -0.64824365
Si       0.01966920       2.79683196       2.75336197       0.07348703      -1.54443610      -0.78956576
Si       1.38851450       4.18666050       4.12483255       0.96817832      -0.12173053       0.51849739
Si       2.71854397       0.00322748       2.72827105      -0.50370513      -0.06013490       0.83785207
Si       4.13907553       1.30822395       4.10601950      -0.52008113       0.00833979       0.14994711
Si       2.72258294       2.67221171      -0.03364316      -0.80160997       1.50452126       0.08324108
Si       4.03969851       4.07694545       1.31163430       0.92700361       0.63226392       0.64770392
8
Lattice="5.4709021605 0.0 0.0 0.0 5.4709021605 0.0 0.0 0.0 5.4709021605" Properties=species:S:1:pos:R:3:momenta:R:3 time_fs=1150.0 temperature_K=206.92935421213681 pbc="T T T"
Si       0.01798989       0.00639365       0.01060803      -0.38056084      -0.06013436      -0.80221561
Si       1.35652644       1.35004259       1.36294940      -0.01723078      -0.22671163      -0.51460693
Si       0.01843740       2.74027494       2.72610348      -0.11042968      -1.61542193      -0.70723760
Si       1.41747498       4.16933734       4.14114298       0.57965039      -0.85124871       0.35222558
Si       2.70798050       0.00169134       2.75335964      -0.07166433      -0.01669379       0.55948659
Si       4.11966123       1.31798134       4.10806348      -0.60730443       0.56040568      -0.02780985
Si       2.69670759       2.72692998      -0.03051648      -0.58370791       1.55035230       0.14944973
Si       4.07792846       4.10005529       1.34099595       1.19124759       0.65945244       0.99070809
8
Lattice="5.4709021605 0.0 0.0 0.0 5.4709021605 0.0 0.0 0.0 5.4709021605" Properties=species:S:1:pos:R:3:momenta:R:3 time_fs=1160.0 temperature_K=181.81691399336486 pbc="T T T"
Si       0.00226614       0.00158318      -0.01561937      -0.48309254      -0.19857203      -0.68355975
Si       1.35757750       1.34608260       1.34618127       0.08628595      -0.02837085      -0.46082738
Si       0.01395752       2.68864470       2.70744236      -0.12365286      -1.27653979      -0.32502478
Si       1.42302228       4.13076269       4.14492074      -0.31510364      -1.27947304      -0.19563807
Si       2.71378151       0.00232402       2.76610491       0.38020474       0.04899119       0.16877435
Si       4.09597473       1.34677082       4.10500834      -0.74443306       1.05576258      -0.12464270
Si       2.68769359       2.77547264      -0.01902925       0.13056284       1.16110977       0.55987251
Si       4.11843321       4.12106582       1.37769747       1.06922858       0.51709219       1.06104582
8
Lattice="5.4709021605 0.0 0.0 0.0 5.4709021605 0.0 0.0 0.0 5.4709021605" Properties=species:S:1:pos:R:3:momenta:R:3 time_fs=1170.0 temperature_K=198.65994569787028 pbc="T T T"
Si      -0.01393483      -0.00590982      -0.03675423      -0.42736625      -0.20419835      -0.52523501
Si       1.36317059       1.34590580       1.33001061       0.24011765      -0.01026283      -0.46323457
Si       0.01075570       2.65413973       2.70422541      -0.05361022      -0.67028481       0.12904316
Si       1.39537334       4.08484096       4.12541719      -1.20940309      -1.28991833      -0.90445544
Si       2.73143235       0.00453931       2.76603879       0.56842774       0.06806342      -0.15134441
Si       4.06869472       1.38845699       4.10130472      -0.78776926       1.26477007      -0.05711073
Si       2.70703156       2.80573356       0.01010231       0.93843668       0.57109262       1.08404383
Si       4.15018307       4.13499995       1.41236166       0.73116674       0.27073822       0.88829316
8
Lattice="5.4709021605 0.0 0.0 0.0 5.4709021605 0.0 0.0 0.0 5.4709021605" Properties=species:S:1:pos:R:3:momenta:R:3 time_fs=1180.0 temperature_K=191.66623380087415 pbc="T T T"
Si      -0.02718828      -0.01115180      -0.05270173      -0.33062954      -0.08017276      -0.39466993
Si       1.37447342       1.34395770       1.31466339       0.40109169      -0.11103520      -0.39238207
Si       0.01003771       2.64189781       2.71405836       0.00136427      -0.05373070       0.37975245
Si       1.34565795       4.04348987       4.08600486      -1.49922386      -1.03563400      -1.25057815
Si       2.74907509       0.00653978       2.75723344       0.38047359       0.04065646      -0.32575377
Si       4.04329093       1.43044246       4.10271417      -0.62743718       1.06800701       0.15234894
Si       2.74751249       2.81747256       0.05252312       1.26267646       0.14292779       1.25542158
Si       4.16984717       4.14005810       1.43821087       0.41168459       0.02898139       0.57586094
8
Lattice="5.4709021605 0.0 0.0 0.0 5.4709021605 0.0 0.0 0.0 5.4709021605" Properties=species:S:1:pos:R:3:momenta:R:3 time_fs=1190.0 temperature_K=89.63560531883101 pbc="T T T"
Si      -0.03710869      -0.01109203      -0.06490241      -0.23433248       0.08096726      -0.30797933
Si       1.39031382       1.33818029       1.30420391       0.48302341      -0.20972483      -0.18589907
Si       0.00950329       2.64706529       2.72640550      -0.05661885       0.28367383       0.26191229
Si       1.29990756       4.01564863       4.04562692      -0.99628973      -0.50336798      -0.95070005
Si       2.75492424       0.00707602       2.74514551      -0.07042428      -0.01408106      -0.33764286
Si       4.02709261       1.45912578       4.11203302      -0.27475352       0.52815478       0.36760087
Si       2.78744883       2.81837248       0.09197162       0.92245076      -0.06304398       0.92717753
Si       4.18062481       4.13833002       1.45222241       0.22694470      -0.10257803       0.22553062
8
Lattice="5.4709021605 0.0 0.0 0.0 5.4709021605 0.0 0.0 0.0 5.4709021605" Properties=species:S:1:pos:R:3:momenta:R:3 time_fs=1200.0 temperature_K=21.226422232821562 pbc="T T T"
Si      -0.04299485      -0.00609830      -0.07412561      -0.08742581       0.19180386      -0.20924624
Si       1.40619721       1.33036025       1.30238846       0.38913443      -0.21846650       0.08182240
Si       0.00473929       2.65714782       2.72896149      -0.21973342       0.24113715      -0.13780401
Si       1.28201305       4.01132202       4.02540605       0.01571708       0.27572070      -0.15514591
Si       2.74419955       0.00525161       2.73549656      -0.51661952      -0.09435202      -0.18950939
Si       4.02481743       1.46553646       4.12672695       0.14050076      -0.16991959       0.43960919
Si       2.80715595       2.81438968       0.11366440       0.16639307      -0.15277113       0.28019018
Si       4.18657884       4.13479694       1.45418819       0.11203340      -0.07315247      -0.10991622
8
Lattice="5.4709021605 0.0 0.0 0.0 5.4709021605 0.0 0.0 0.0 5.4709021605" Properties=species:S:1:pos:R:3:momenta:R:3 time_fs=1210.0 temperature_K=86.1116257042652 pbc="T T T"
Si      -0.04188389       0.00134444      -0.07823101       0.17207095       0.21954196       0.00005506
Si       1.41489669       1.32423979       1.30923720       0.07277988      -0.11377455       0.29260766
Si      -0.00446055       2.66246036       2.71780908      -0.26500665       0.07318471      -0.45110225
Si       1.30027901       4.03360234       4.03518641       0.96791671       0.94081549       0.67819009
Si       2.72212193       0.00037624       2.73318444      -0.68120298      -0.18096536       0.06739558
Si       4.03560461       1.44795204       4.14024441       0.44439303      -0.80719562       0.29639546
Si       2.79881586       2.80819072       0.11064744      -0.61420117      -0.19843337      -0.44672444
Si       4.18733281       4.13454056       1.44462851      -0.09674976       0.06682675      -0.43681716
8
Lattice="5.4709021605 0.0 0.0 0.0 5.4709021605 0.0 0.0 0.0 5.4709021605" Properties=species:S:1:pos:R:3:momenta:R:3 time_fs=1220.0 temperature_K=180.26756838194095 pbc="T T T"
Si      -0.02976388       0.00833865      -0.07227173       0.52939440       0.16887830       0.36330029
Si       1.40952407       1.32337044       1.32149991      -0.38973145       0.07326079       0.39030723
Si      -0.01062427       2.66445051       2.70194238      -0.05081487       0.08317790      -0.38832555
Si       1.34312878       4.07156103       4.06844371       1.36805922       1.14153898       1.14528363
Si       2.70143811      -0.00664597       2.74005809      -0.43419894      -0.20198707       0.30917916
Si       4.05317572       1.41214552       4.14516272       0.51963963      -1.18343885      -0.04119584
Si       2.76810874       2.80041146       0.08410823      -1.06448925      -0.25393736      -1.02919995
Si       4.17771921       4.13907485       1.42376316      -0.47785874       0.17250730      -0.74934896
8
Lattice="5.4709021605 0.0 0.0 0.0 5.4709021605 0.0 0.0 0.0 5.4709021605" Properties=species:S:1:pos:R:3:momenta:R:3 time_fs=1230.0 temperature_K=210.18142823191573 pbc="T T T"
Si      -0.00542048       0.01255974      -0.05209139       0.83368801       0.06740909       0.78455293
Si       1.38851614       1.32965560       1.33566064      -0.77440686       0.28604891       0.41442461
Si      -0.00701433       2.67128883       2.69451554       0.24676136       0.34795159       0.00226403
Si       1.38806657       4.10808386       4.10971622       1.09940624       0.88973842       1.13668798
Si       2.69526959      -0.01217674       2.75265372       0.10719980      -0.09230594       0.36791403
Si       4.06975721       1.36952617       4.13643297       0.41297175      -1.19037633      -0.45484588
Si       2.73032127       2.78931729       0.04252158      -1.01075421      -0.40554764      -1.28314344
Si       4.15321051       4.14445173       1.39329721      -0.91486609       0.09708190      -0.96785425
8
Lattice="5.4709021605 0.0 0.0 0.0 5.4709021605 0.0 0.0 0.0 5.4709021605" Properties=species:S:1:pos:R:3:momenta:R:3 time_fs=1240.0 temperature_K=191.86859594447182 pbc="T T T"
Si       0.02500210       0.01291647      -0.01915889       0.83656350      -0.04700927       1.05580908
Si       1.35943027       1.34320804       1.35073401      -0.81517239       0.48537431       0.45881465
Si       0.00442783       2.69098788       2.70339154       0.36036794       0.79792152       0.50321945
Si       1.41472797       4.13167787       4.14299644       0.38237495       0.45438351       0.70606811
Si       2.70845897      -0.01219717       2.76247330       0.60719738       0.09113717       0.14734483
Si       4.08251538       1.33286641       4.11496079       0.34462659      -0.85739346      -0.73026875
Si       2.70241096       2.76991039      -0.00101964      -0.53475053      -0.73435772      -1.14718523
Si       4.11573301       4.14333659       1.35832894      -1.18120745      -0.19005605      -0.99380215
8
Lattice="5.4709021605 0.0 0.0 0.0 5.4709021605 0.0 0.0 0.0 5.4709021605" Properties=species:S:1:pos:R:3:momenta:R:3 time_fs=1250.0 temperature_K=176.89570694927951 pbc="T T T"
Si       0.04793023       0.00932079       0.01815374       0.40749049      -0.15669885       1.02457728
Si       1.33658102       1.36330596       1.36881419      -0.43063908       0.65734415       0.59000348
Si       0.01463499       2.72720878       2.72813026       0.17560170       1.25431845       0.86879162
Si       1.41462503       4.14065127       4.15636741      -0.35152770       0.07866679       0.04668763
Si       2.73327840      -0.00674793       2.76045196       0.73442466       0.19705145      -0.28410118
Si       4.09669759       1.31206304       4.08919217       0.50991899      -0.31131046      -0.68366014
Si       2.69431917       2.73682175      -0.03489043       0.06008116      -1.15177206      -0.77226380
Si       4.07464004       4.13008282       1.32648719      -1.10535021      -0.56759946      -0.79003488
8
Lattice="5.4709021605 0.0 0.0 0.0 5.4709021605 0.0 0.0 0.0 5.4709021605" Properties=species:S:1:pos:R:3:momenta:R:3 time_fs=1260.0 temperature_K=187.64494070521013 pbc="T T T"
Si       0.05056933       0.00235081       0.04945381      -0.26635123      -0.23077307       0.73494171
Si       1.33162990       1.38832386       1.39249016       0.14831622       0.75296841       0.75869198
Si       0.01424677       2.77595663       2.76012317      -0.21774580       1.47498388       0.89200233
Si       1.39473094       4.13871558       4.14762942      -0.70197945      -0.16469114      -0.49806845
Si       2.75491183      -0.00006044       2.74256032       0.45082244       0.16750072      -0.71691734
Si       4.12025982       1.31114161       4.07058518       0.84491213       0.23697384      -0.34883161
Si       2.70396388       2.69161041      -0.05533281       0.43625179      -1.37797949      -0.41607677
Si       4.04239402       4.10466803       1.30519722      -0.69422610      -0.85898316      -0.40574185
8
Lattice="5.4709021605 0.0 0.0 0.0 5.4709021605 0.0 0.0 0.0 5.4709021605" Properties=species:S:1:pos:R:3:momenta:R:3 time_fs=1270.0 temperature_K=176.42010240238173 pbc="T T T"
Si       0.03104018      -0.00570779       0.06850847      -0.79465074      -0.21146809       0.35327670
Si       1.34480308       1.41408416       1.42051701       0.54765217       0.68925326       0.81113096
Si      -0.00076942       2.82556259       2.78573646      -0.62556458       1.28774375       0.51155471
Si       1.37135041       4.13123686       4.12610707      -0.56152708      -0.22677127      -0.65883680
Si       2.76324482       0.00439934       2.71330976       0.03278443       0.08722144      -0.89564751
Si       4.15440324       1.32571982       4.06534386       1.06220621       0.53962669       0.03483136
Si       2.72091402       2.64509572      -0.06556095       0.48385514      -1.21168436      -0.18818454
Si       4.02772016       4.07231580       1.29874480      -0.14475554      -0.95392141       0.03187512
8
Lattice="5.4709021605 0.0 0.0 0.0 5.4709021605 0.0 0.0 0.0 5.4709021605" Properties=species:S:1:pos:R:3:momenta:R:3 time_fs=1280.0 temperature_K=105.7884009200212 pbc="T T T"
Si       0.00019099      -0.01131053       0.07482713      -0.88454105      -0.09778586       0.02663976
Si       1.36497337       1.43458198       1.44636155       0.52943125       0.46064272       0.62115093
Si      -0.02709793       2.86136679       2.79311524      -0.82451744       0.70618700      -0.10095094
Si       1.35904204       4.12535781       4.10615685      -0.11749326      -0.08052714      -0.43206373
Si       2.75930475       0.00616680       2.68456643      -0.21189468       0.01453805      -0.68134004
Si       4.19027860       1.34469131       4.07096527       0.91872140       0.48934213       0.24767945
Si       2.73536773       2.61123176      -0.06932437       0.32222177      -0.67374541      -0.03174924
Si       4.03064694       4.04062056       1.30603837       0.26807202      -0.81865148       0.35063382
8
Lattice="5.4709021605 0.0 0.0 0.0 5.4709021605 0.0 0.0 0.0 5.4709021605" Properties=species:S:1:pos:R:3:momenta:R:3 time_fs=1290.0 temperature_K=33.29054865666151 pbc="T T T"
Si      -0.02523477      -0.01228766       0.07205697      -0.50175877       0.03840308      -0.15828465
Si       1.37717200       1.44524646       1.46096792       0.11871991       0.13925685       0.17796850
Si      -0.05330117       2.87262004       2.78026420      -0.58831649      -0.07631048      -0.58024419
Si       1.36281772       4.12649541       4.09765821       0.30265197       0.14038833      -0.05260703
Si       2.75189628       0.00534605       2.66953307      -0.16611971      -0.06181551      -0.13913759
Si       4.21391112       1.35701460       4.07991381       0.37310817       0.19017388       0.22865807
Si       2.74289916       2.60035550      -0.06779878       0.11019557       0.06800932       0.12093582
Si       4.04254615       4.01791608       1.32011109       0.35151937      -0.43810548       0.40271108
8
Lattice="5.4709021605 0.0 0.0 0.0 5.4709021605 0.0 0.0 0.0 5.4709021605" Properties=species:S:1:pos:R:3:momenta:R:3 time_fs=1300.0 temperature_K=55.18516283004137 pbc="T T T"
Si      -0.03184345      -0.00921125       0.06536611       0.13957448       0.12645284      -0.20893673
Si       1.37177188       1.44374707       1.45720285      -0.41767428      -0.23316822      -0.40083285
Si      -0.06289065       2.85633099       2.75727842       0.09243134      -0.83344654      -0.66575536
Si       1.37702848       4.13381042       4.10136986       0.45839666       0.24853537       0.23820191
Si       2.74981525       0.00218159       2.67594729       0.05802898      -0.10739373       0.49680358
Si       4.21350135       1.35751072       4.08523377      -0.41463978      -0.15193735       0.06435525
Si       2.74354638       2.61582357      -0.06077727      -0.06452321       0.79616452       0.27975146
Si       4.05177725       4.01251336       1.33108545       0.14840580       0.15479311       0.19641274
8
Lattice="5.4709021605 0.0 0.0 0.0 5.4709021605 0.0 0.0 0.0 5.4709021605" Properties=species:S:1:pos:R:3:momenta:R:3 time_fs=1310.0 temperature_K=175.3133657358236 pbc="T T T"
Si      -0.01659574      -0.00420171       0.05764212       0.68463103       0.14968622      -0.24353028
Si       1.35085404       1.42848975       1.43358951      -0.70825218      -0.64031236      -0.92315356
Si      -0.04619616       2.81709027       2.73722355       0.82430380      -1.35299059      -0.45234942
Si       1.39171647       4.14165936       4.11226142       0.34670839       0.16949179       0.35470563
Si       2.75516465      -0.00102691       2.70195777       0.21561155      -0.05936520       0.93538793
Si       4.18565543       1.34801519       4.08476803      -1.13633889      -0.35593598      -0.06962576
Si       2.73885858       2.65349965      -0.04852648      -0.19977055       1.30680225       0.41281366
Si       4.05324921       4.02918088       1.33379056      -0.02689315       0.78262387      -0.01424819
8
Lattice="5.4709021605 0.0 0.0 0.0 5.4709021605 0.0 0.0 0.0 5.4709021605" Properties=species:S:1:pos:R:3:momenta:R:3 time_fs=1320.0 temperature_K=241.11966408395412 pbc="T T T"
Si       0.01093188       0.00049203       0.04676982       0.79748578       0.10572390      -0.40875668
Si       1.32836221       1.39974984       1.39552977      -0.48197630      -0.97551578      -1.19761310
Si      -0.01046627       2.76646191       2.72637023       1.12035858      -1.46976110      -0.17007199
Si       1.39975981       4.14390331       4.12415553       0.10274983      -0.05915799       0.29649562
Si       2.76162900      -0.00131823       2.73649472       0.09862729       0.04112049       0.96022632
Si       4.13883639       1.33571295       4.08275862      -1.44969283      -0.29527528      -0.00201893
Si       2.72972629       2.70289183      -0.03262760      -0.31850046       1.44823928       0.48563547
Si       4.05392718       4.06481285       1.33325540       0.13094811       1.20462646       0.03610329
8
Lattice="5.4709021605 0.0 0.0 0.0 5.4709021605 0.0 0.0 0.0 5.4709021605" Properties=species:S:1:pos:R:3:momenta:R:3 time_fs=1330.0 temperature_K=194.08986989481696 pbc="T T T"
Si       0.03269979       0.00222431       0.02695095       0.36638477      -0.01789173      -0.74699763
Si       1.32296243       1.36331884       1.35428243       0.23065038      -1.05190714      -1.09449633
Si       0.02544413       2.71872501       2.72473804       0.85224970      -1.21050763       0.06245916
Si       1.39865327       4.13688276       4.13098273      -0.16587473      -0.34313787       0.06573283
Si       2.75854970       0.00100035       2.76385364      -0.30990455       0.07335540       0.54210271
Si       4.09093320       1.33106049       4.08753819      -1.20304421       0.07570430       0.30705434
Si       2.71741430       2.75015166      -0.01500463      -0.36225936       1.19710359       0.52227536
Si       4.06604966       4.10934305       1.33936513       0.59179801       1.27728108       0.34186956
8
Lattice="5.4709021605 0.0 0.0 0.0 5.4709021605 0.0 0.0 0.0 5.4709021605" Properties=species:S:1:pos:R:3:momenta:R:3 time_fs=1340.0 temperature_K=172.34603691587765 pbc="T T T"
Si       0.03320027      -0.00078677      -0.00567930      -0.34446312      -0.14014355      -1.09642274
Si       1.34542098       1.32993111       1.32279588       1.01665885      -0.81415824      -0.67185352
Si       0.04555072       2.68394843       2.72935386       0.27736781      -0.76478343       0.17687124
Si       1.38826542       4.12026954       4.12714938      -0.42483075      -0.59709660      -0.29892731
Si       2.73957838       0.00285966       2.77208492      -0.74523671       0.02859216      -0.07009677
Si       4.05863043       1.34281781       4.10482522      -0.62478070       0.59575323       0.66140833
Si       2.70675619       2.78401421       0.00434969      -0.20639234       0.72483488       0.59394983
Si       4.09530409       4.14965248       1.35782682       1.05167695       0.96700156       0.70507095
8
Lattice="5.4709021605 0.0 0.0 0.0 5.4709021605 0.0 0.0 0.0 5.4709021605" Properties=species:S:1:pos:R:3:momenta:R:3 time_fs=1350.0 temperature_K=192.43386313784097 pbc="T T T"
Si       0.01111803      -0.00582248      -0.04645176      -0.84735098      -0.11936883      -1.16964125
Si       1.38832210       1.30817146       1.30769988       1.31973628      -0.41918098      -0.21202993
Si       0.04542031       2.66513337       2.73531200      -0.25353233      -0.32528635       0.13924335
Si       1.36945173       4.09604673       4.11011317      -0.63744661      -0.77009395      -0.65806439
Si       2.71066339       0.00325088       2.76139852      -0.82546652      -0.00060848      -0.47882063
Si       4.04608188       1.37083161       4.13060055      -0.13660094       0.95895094       0.74860735
Si       2.70561588       2.80144376       0.02695938       0.16975472       0.29959041       0.69784342
Si       4.13603315       4.17365115       1.38707475       1.21090637       0.37599724       0.93286208
8
Lattice="5.4709021605 0.0 0.0 0.0 5.4709021605 0.0 0.0 0.0 5.4709021605" Properties=species:S:1:pos:R:3:momenta:R:3 time_fs=1360.0 temperature_K=149.4011383822823 pbc="T T T"
Si      -0.02011838      -0.00780980      -0.08272279      -0.85250029       0.01109670      -0.84188391
Si       1.42903990       1.30081888       1.30537628       0.89318339      -0.00299928       0.03453313
Si       0.03087545       2.65946315       2.73766167      -0.52845004      -0.03326378      -0.02059186
Si       1.34521761       4.06812479       4.08343877      -0.71671818      -0.79408018      -0.82010055
Si       2.68773245       0.00275981       2.74372504      -0.41201438      -0.03615140      -0.45720321
Si       4.04532485       1.40610941       4.15262358       0.03990873       1.00306910       0.45284841
Si       2.71944361       2.80762311       0.05243607       0.61308776       0.09562498       0.73973214
Si       4.17519100       4.17561714       1.42016787       0.96350301      -0.24329614       0.91266585
8
Lattice="5.4709021605 0.0 0.0 0.0 5.4709021605 0.0 0.0 0.0 5.4709021605" Properties=species:S:1:pos:R:3:momenta:R:3 time_fs=1370.0 temperature_K=79.66997697578488 pbc="T T T"
Si      -0.04361491      -0.00550514      -0.10210263      -0.44321173       0.10699933      -0.23928774
Si       1.44502642       1.30745696       1.30747825      -0.01954750       0.36691570       0.06195053
Si       0.01171356       2.66007597       2.73320869      -0.52678494       0.02893558      -0.23626782
Si       1.32207960       4.04315838       4.05654885      -0.56139515      -0.59324540      -0.66061355
Si       2.68507339      -0.00002072       2.73354825       0.27205952      -0.12877254      -0.08912513
Si       4.04603427       1.43743118       4.15950182      -0.02301378       0.74150144      -0.07775691
Si       2.74654982       2.81062780       0.07691943       0.89024377       0.10091686       0.63003190
Si       4.19984432       4.15948205       1.44760383       0.41164982      -0.62325098       0.61106871
8
Lattice="5.4709021605 0.0 0.0 0.0 5.4709021605 0.0 0.0 0.0 5.4709021605" Properties=species:S:1:pos:R:3:momenta:R:3 time_fs=1380.0 temperature_K=71.58920929477591 pbc="T T T"
Si      -0.04966975      -0.00125318      -0.09907703       0.09134828       0.12613820       0.39708923
Si       1.42822388       1.32465836       1.30937528      -0.88772832       0.58156891       0.05815682
Si      -0.00378865       2.65942338       2.72161424      -0.33821057      -0.07973712      -0.41014148
Si       1.30895682       4.02904434       4.04073259      -0.15268568      -0.18966572      -0.20530282
Si       2.70502307      -0.00585066       2.73787813       0.81058512      -0.18753951       0.31409594
Si       4.04342376       1.45517278       4.14756903      -0.11231096       0.24088655      -0.57618707
Si       2.77751264       2.81525740       0.09423471       0.81045588       0.15441071       0.32607521
Si       4.20302471       4.13625406       1.46037953      -0.22145376      -0.64606202       0.09621417
8
Lattice="5.4709021605 0.0 0.0 0.0 5.4709021605 0.0 0.0 0.0 5.4709021605" Properties=species:S:1:pos:R:3:momenta:R:3 time_fs=1390.0 temperature_K=106.55847299200474 pbc="T T T"
Si      -0.03913029       0.00290061      -0.07657472       0.46734018       0.10794295       0.84374576
Si       1.38896438       1.34551102       1.31286065      -1.24838032       0.57466055       0.16052261
Si      -0.01126263       2.65512594       2.70628373      -0.09221442      -0.13416478      -0.43388512
Si       1.31297170       4.03050606       4.04363399       0.38833788       0.26640843       0.37265162
Si       2.73632382      -0.01164606       2.75263141       0.89117719      -0.12411641       0.47664844
Si       4.04007133       1.45295890       4.12244614      -0.04315507      -0.37011673      -0.80018529
Si       2.79833837       2.81969389       0.09742587       0.31622015       0.06276637      -0.17316367
Si       4.18642981       4.11765612       1.45399941      -0.67932560      -0.38338037      -0.44633436
8
Lattice="5.4709021605 0.0 0.0 0.0 5.4709021605 0.0 0.0 0.0 5.4709021605" Properties=species:S:1:pos:R:3:momenta:R:3 time_fs=1400.0 temperature_K=139.525713256328 pbc="T T T"
Si      -0.02050533       0.00606118      -0.04373753       0.54732532       0.06848853       0.97873884
Si       1.34874370       1.36273517       1.32149743      -0.94646500       0.38686917       0.33803069
Si      -0.01131791       2.65340106       2.69381417       0.06392462       0.09277523      -0.24100884
Si       1.33524500       4.04635158       4.06557540       0.85355217       0.61238435       0.84674951
Si       2.76161696      -0.01373408       2.76741742       0.48644568       0.00665311       0.31705480
Si       4.04305194       1.43041521       4.09608267       0.24851130      -0.88458714      -0.64513682
Si       2.79647801       2.81691295       0.08079782      -0.44056668      -0.25773289      -0.78014025
Si       4.15939411       4.11056341       1.43125912      -0.81272742      -0.02485036      -0.81428793
8
Lattice="5.4709021605 0.0 0.0 0.0 5.4709021605 0.0 0.0 0.0 5.4709021605" Properties=species:S:1:pos:R:3:momenta:R:3 time_fs=1410.0 temperature_K=185.81905746389867 pbc="T T T"
Si      -0.00361610       0.00736513      -0.01158795       0.39434875       0.00232885       0.81978550
Si       1.32831179       1.37159435       1.33635067      -0.17766561       0.11686279       0.50461516
Si      -0.00859815       2.66522466       2.69178019       0.07194457       0.62059847       0.14944986
Si       1.36914989       4.07134431       4.09937326       1.01672435       0.79058231       1.02300626
Si       2.76728760      -0.01153375       2.77187501      -0.17587895       0.11079868      -0.09008673
Si       4.05908075       1.39435951       4.08076120       0.67430369      -1.12296730      -0.20075351
Si       2.76887274       2.79990714       0.04439247      -1.07885340      -0.72736523      -1.25288104
Si       4.13221795       4.11444514       1.39976164      -0.72492340       0.20916143      -0.95313549
8
Lattice="5.4709021605 0.0 0.0 0.0 5.4709021605 0.0 0.0 0.0 5.4709021605" Properties=species:S:1:pos:R:3:momenta:R:3 time_fs=1420.0 temperature_K=235.0630033935176 pbc="T T T"
Si       0.00676148       0.00616955       0.01196483       0.21291817      -0.06798271       0.52213290
Si       1.33619742       1.37164807       1.35621768       0.58032362      -0.08952991       0.62171353
Si      -0.00667172       2.69763820       2.70489624       0.04731375       1.21641825       0.59188280
Si       1.40084343       4.10025176       4.13232047       0.71438118       0.84787507       0.79255775
Si       2.75082907      -0.00645505       2.76063026      -0.70858475       0.17514372      -0.53649227
Si       4.08903285       1.35552290       4.08227749       0.99767761      -1.05067926       0.26237086
Si       2.72736275       2.76600422      -0.00200376      -1.18379978      -1.20021922      -1.31973739
Si       4.10835121       4.12192684       1.36640327      -0.66022980       0.16897406      -0.93442817
8
Lattice="5.4709021605 0.0 0.0 0.0 5.4709021605 0.0 0.0 0.0 5.4709021605" Properties=species:S:1:pos:R:3:momenta:R:3 time_fs=1430.0 temperature_K=226.0171904365869 pbc="T T T"
Si       0.01300907       0.00297950       0.02587105       0.17266596      -0.10774133       0.30175909
Si       1.36304856       1.36776059       1.37891477       0.84795189      -0.09071012       0.65779432
Si      -0.00413102       2.74738761       2.73146050       0.11403293       1.56652083       0.88930568
Si       1.41471776       4.12963712       4.15111277       0.04659394       0.81238922       0.25289582
Si       2.72342690       0.00031380       2.73699277      -0.76212244       0.20095394      -0.76029124
Si       4.12491539       1.32361211       4.09573583       0.99087281      -0.74213569       0.44296559
Si       2.69331390       2.71769551      -0.04295843      -0.68295365      -1.51972912      -0.97162016
Si       4.08440592       4.12332024       1.33557722      -0.72704144      -0.11954774      -0.81280910
8
Lattice="5.4709021605 0.0 0.0 0.0 5.4709021605 0.0 0.0 0.0 5.4709021605" Properties=species:S:1:pos:R:3:momenta:R:3 time_fs=1440.0 temperature_K=161.82280585846553 pbc="T T T"
Si       0.02020723      -0.00090061       0.03552664       0.24385093      -0.10759165       0.28513070
Si       1.38810310       1.36822978       1.40066308       0.49369772       0.15408866       0.56255109
Si       0.00158077       2.80226083       2.76386076       0.19970649       1.49661385       0.90986059
Si       1.40472345       4.15507464       4.15003501      -0.56927433       0.60825839      -0.28717116
Si       2.70379288       0.00632378       2.71168680      -0.28904435       0.11953324      -0.62795552
Si       4.15460631       1.30522903       4.10875493       0.67125196      -0.29644079       0.24555445
Si       2.68241043       2.66394943      -0.06841281       0.05891094      -1.47829187      -0.48665537
Si       4.05728231       4.11253961       1.31059207      -0.80909935      -0.49616983      -0.60131478
8
Lattice="5.4709021605 0.0 0.0 0.0 5.4709021605 0.0 0.0 0.0 5.4709021605" Properties=species:S:1:pos:R:3:momenta:R:3 time_fs=1450.0 temperature_K=101.00501136357165 pbc="T T T"
Si       0.02915360      -0.00409374       0.04746867       0.23889582      -0.06880123       0.40555836
Si       1.39360076       1.38001663       1.41712745      -0.19559977       0.52020389       0.37390293
Si       0.00773140       2.84711604       2.79109784       0.10828817       1.00395260       0.58899812
Si       1.38023928       4.17024777       4.13422209      -0.73727537       0.24461825      -0.55838364
Si       2.70583529       0.00738428       2.69613699       0.40434680      -0.06579738      -0.23833645
Si       4.17107704       1.30278608       4.11036574       0.28274928       0.14063269      -0.16739219
Si       2.69503893       2.61962101      -0.07818913       0.60255479      -0.98766365      -0.09672066
Si       4.03003017       4.08962842       1.29447684      -0.70395971      -0.78714516      -0.30762647
8
Lattice="5.4709021605 0.0 0.0 0.0 5.4709021605 0.0 0.0 0.0 5.4709021605" Properties=species:S:1:pos:R:3:momenta:R:3 time_fs=1460.0 temperature_K=78.06389924884846 pbc="T T T"
Si       0.03443458      -0.00540427       0.06315545       0.02807023      -0.00452443       0.46447702
Si       1.37617806       1.40299707       1.42728136      -0.74085748       0.75037347       0.22052319
Si       0.00603345       2.86897662       2.80152024      -0.24055911       0.21535937      -0.02812993
Si       1.35947145       4.17228401       4.11529044      -0.37495826      -0.11422181      -0.46594413
Si       2.72934935       0.00237880       2.69490486       0.87120836      -0.19714877       0.14507375
Si       4.17633475       1.31309576       4.09766735       0.05369159       0.41239950      -0.52933038
Si       2.71939823       2.59837837      -0.07689338       0.71119593      -0.19889893       0.14760273
Si       4.01150660       4.06000012       1.28978016      -0.30779127      -0.86333839       0.04572775
8
Lattice="5.4709021605 0.0 0.0 0.0 5.4709021605 0.0 0.0 0.0 5.4709021605" Properties=species:S:1:pos:R:3:momenta:R:3 time_fs=1470.0 temperature_K=96.42639796272178 pbc="T T T"
Si       0.02946229      -0.00452162       0.07745412      -0.32001907       0.05090527       0.31414216
Si       1.34712985       1.42875304       1.43330485      -0.83829901       0.66454984       0.12606970
Si      -0.00977477       2.86197121       2.78862400      -0.64151759      -0.58939595      -0.68410318
Si       1.35701232       4.16342284       4.10458686       0.23932824      -0.37822352      -0.12516729
Si       2.76116672      -0.00447331       2.70391404       0.86821434      -0.16883467       0.33184310
Si       4.17693163       1.32905193       4.07641400      -0.00221745       0.46652917      -0.63139572
Si       2.73986748       2.60594274      -0.06933760       0.40490947       0.61101306       0.26534615
Si       4.01091096       4.03255965       1.29774622       0.28960107      -0.65654319       0.40326507
8
Lattice="5.4709021605 0.0 0.0 0.0 5.4709021605 0.0 0.0 0.0 5.4709021605" Properties=species:S:1:pos:R:3:momenta:R:3 time_fs=1480.0 temperature_K=130.35691809953238 pbc="T T T"
Si       0.01289319      -0.00219105       0.08277577      -0.59587247       0.07716105      -0.03478725
Si       1.32258540       1.44569476       1.43540694      -0.50755059       0.25653262      -0.02675778
Si      -0.03520590       2.83121620       2.75753962      -0.73719980      -1.10510344      -1.01393059
Si       1.37399149       4.14661231       4.10634858       0.66921323      -0.57047643       0.20236096
Si       2.78552779      -0.00818970       2.71574597       0.47867345      -0.03501331       0.31813448
Si       4.17610673       1.34391836       4.05748034      -0.06397385       0.36586075      -0.39692546
Si       2.74569778       2.63835526      -0.05937619      -0.07231239       1.18740649       0.29617215
Si       4.03110999       4.01729034       1.31678545       0.82902242      -0.17636773       0.65573349
8
Lattice="5.4709021605 0.0 0.0 0.0 5.4709021605 0.0 0.0 0.0 5.4709021605" Properties=species:S:1:pos:R:3:momenta:R:3 time_fs=1490.0 temperature_K=140.92973048365272 pbc="T T T"
Si      -0.00897962       0.00050789       0.07410080      -0.59850188       0.07147516      -0.46273218
Si       1.31428161       1.44422308       1.42962036       0.05008230      -0.36037910      -0.33001900
Si      -0.05558431       2.78908127       2.72383439      -0.34967580      -1.24899000      -0.82787448
Si       1.39827800       4.12497538       4.11607732       0.63108067      -0.63527872       0.30464515
Si       2.79294176      -0.00691233       2.72501592      -0.05880251       0.10101814       0.20567610
Si       4.17028873       1.35404109       4.05164826      -0.30587193       0.21389403       0.09066880
Si       2.73672191       2.68452716      -0.04838822      -0.38842079       1.38262279       0.34841829
Si       4.06475840       4.02226293       1.34079764       1.02010994       0.47563771       0.67121731
8
Lattice="5.4709021605 0.0 0.0 0.0 5.4709021605 0.0 0.0 0.0 5.4709021605" Properties=species:S:1:pos:R:3:momenta:R:3 time_fs=1500.0 temperature_K=161.80402503876425 pbc="T T T"
Si      -0.02510240       0.00237561       0.05101270      -0.27616799       0.02900848      -0.84039464
Si       1.32580747       1.42056516       1.41111769       0.58456671      -0.96905256      -0.73232940
Si      -0.05570732       2.74682899       2.70418561       0.36910342      -1.13537133      -0.25924480
Si       1.41233539       4.10483001       4.12394332       0.10448439      -0.47896727       0.09414221
Si       2.78230079      -0.00193873       2.73032934      -0.52333644       0.16880035       0.10840886
Si       4.15246509       1.35961756       4.06428553      -0.73385821       0.12412310       0.61720516
Si       2.72315054       2.73025465      -0.03321936      -0.31836341       1.17053204       0.54741726
Si       4.09745691       4.05017323       1.36105165       0.79357153       1.09092720       0.46479535
8
Lattice="5.4709021605 0.0 0.0 0.0 5.4709021605 0.0 0.0 0.0 5.4709021605" Properties=species:S:1:pos:R:3:momenta:R:3 time_fs=1510.0 temperature_K=235.02261665729583 pbc="T T T"
Si      -0.02634715       0.00220281       0.01691440       0.20830573      -0.04071457      -1.08191928
Si       1.35238315       1.37947796       1.37925031       0.88447586      -1.32022435      -1.06109604
Si      -0.03049161       2.71132694       2.70584882       1.02678827      -0.87793737       0.32496564
Si       1.40302966       4.09310136       4.12020540      -0.63322664      -0.18978656      -0.31936678
Si       2.75873749       0.00387210       2.73358678      -0.78488749       0.15013497       0.09351072
Si       4.11894014       1.36432264       4.09248719      -1.15977036       0.16732078       0.94712869
Si       2.71809988       2.76350607      -0.00890888       0.05437570       0.71587175       0.84008487
Si       4.11835492       4.09489661       1.37332247       0.40393892       1.39533535       0.25669217
8
Lattice="5.4709021605 0.0 0.0 0.0 5.4709021605 0.0 0.0 0.0 5.4709021605" Properties=species:S:1:pos:R:3:momenta:R:3 time_fs=1520.0 temperature_K=266.1674832717914 pbc="T T T"
Si      -0.01226603      -0.00024720      -0.02253605       0.54555267      -0.09029219      -1.14079063
Si       1.38406676       1.33296612       1.33979344       0.87953583      -1.26924680      -1.14491099
Si       0.01102101       2.68595451       2.72335436       1.25440302      -0.57618974       0.61017566
Si       1.37128794       4.09015406       4.10277013      -1.09783500      -0.01415222      -0.63650479
Si       2.73009308       0.00783586       2.73782631      -0.81731282       0.06938821       0.15930999
Si       4.07461001       1.37236483       4.12671524      -1.30848012       0.29708901       0.95380504
Si       2.72635822       2.78122264       0.02374887       0.38035895       0.33225947       0.98343263
Si       4.12753549       4.14245566       1.38103419       0.16377748       1.25114426       0.21548309
8
Lattice="5.4709021605 0.0 0.0 0.0 5.4709021605 0.0 0.0 0.0 5.4709021605" Properties=species:S:1:pos:R:3:momenta:R:3 time_fs=1530.0 temperature_K=163.62368568071068 pbc="T T T"
Si       0.00710904      -0.00312651      -0.06046428       0.48865142      -0.05705833      -0.99252528
Si       1.41121645       1.29507618       1.30272393       0.64387159      -0.84649308      -0.92729516
Si       0.05045626       2.66998865       2.74363459       0.90779561      -0.36144886       0.48074905
Si       1.33340295       4.08958545       4.07939936      -0.96131057      -0.04794392      -0.64257667
Si       2.70370927       0.00847531       2.74513115      -0.66536606      -0.03289288       0.25902443
Si       4.03261473       1.38462904       4.15562941      -1.01960214       0.38808268       0.65570664
Si       2.74110039       2.78982273       0.05648251       0.40749537       0.20476794       0.84268647
Si       4.13309738       4.17825563       1.39016981       0.19846478       0.75298644       0.32423053
8
Lattice="5.4709021605 0.0 0.0 0.0 5.4709021605 0.0 0.0 0.0 5.4709021605" Properties=species:S:1:pos:R:3:momenta:R:3 time_fs=1540.0 temperature_K=42.6615067282487 pbc="T T T"
Si       0.01755604      -0.00316320      -0.08960044       0.06672489       0.06477810      -0.64315470
Si       1.42763697       1.27610471       1.27763493       0.28025886      -0.22298359      -0.47883368
Si       0.06947554       2.65879266       2.75302669       0.13619467      -0.30087868       0.01807289
Si       1.31024728       4.08553208       4.06137663      -0.30391119      -0.19207256      -0.34777979
Si       2.68512367       0.00577546       2.75556377      -0.37713017      -0.11461545       0.32540126
Si       4.00732189       1.39813047       4.17027315      -0.39087487       0.36454513       0.16093914
Si       2.75175975       2.79810108       0.08020206       0.17398640       0.29248166       0.48838115
Si       4.14358534       4.19343322       1.40422968       0.41475140       0.10874538       0.47697373
8
Lattice="5.4709021605 0.0 0.0 0.0 5.4709021605 0.0 0.0 0.0 5.4709021605" Properties=species:S:1:pos:R:3:momenta:R:3 time_fs=1550.0 temperature_K=51.42346057330657 pbc="T T T"
Si       0.01091630       0.00137617      -0.10379140      -0.42786399       0.18296404      -0.15221602
Si       1.43011004       1.27931625       1.27039085      -0.14461924       0.38861730       0.06885058
Si       0.05956561       2.64843655       2.74409547      -0.67007063      -0.28126984      -0.51174637
Si       1.31331555       4.07600719       4.05675487       0.45286900      -0.34970470       0.08974605
Si       2.67860604       0.00111647       2.76662413       0.02006985      -0.14087526       0.28453180
Si       4.00585360       1.40913348       4.16646152       0.28775831       0.25668116      -0.37005350
Si       2.75277238       2.81074189       0.08955714      -0.10266896       0.41880690       0.04027990
Si       4.16156696       4.18657848       1.42261390       0.58452567      -0.47521960       0.55060756
8
Lattice="5.4709021605 0.0 0.0 0.0 5.4709021605 0.0 0.0 0.0 5.4709021605" Properties=species:S:1:pos:R:3:momenta:R:3 time_fs=1560.0 temperature_K=133.04755345045186 pbc="T T T"
Si      -0.00928245       0.00816527      -0.09971961      -0.66395276       0.17852926       0.38402845
Si       1.41752802       1.30123767       1.28183205      -0.56679217       0.82664668       0.56329178
Si       0.02717533       2.64067377       2.72015114      -1.09151435      -0.13509957      -0.79607774
Si       1.33765076       4.06177985       4.06680533       0.85279855      -0.44319384       0.45537093
Si       2.68720303      -0.00339153       2.77393040       0.47217139      -0.10976239       0.11501057
Si       4.02454407       1.41589939       4.14594467       0.72244114       0.13064815      -0.76895029
Si       2.74663920       2.82545248       0.08333070      -0.20689015       0.38090599      -0.37955069
Si       4.18124852       4.16288958       1.44043180       0.48173835      -0.82867428       0.42687699
8
Lattice="5.4709021605 0.0 0.0 0.0 5.4709021605 0.0 0.0 0.0 5.4709021605" Properties=species:S:1:pos:R:3:momenta:R:3 time_fs=1570.0 temperature_K=155.52912115880815 pbc="T T T"
Si      -0.03081167       0.01213626      -0.07765185      -0.50430986       0.03047462       0.85714178
Si       1.39186706       1.33408594       1.30744746      -0.86558800       1.00333552       0.85834285
Si      -0.00988749       2.64061425       2.69332548      -0.93184275       0.14890478      -0.66438387
Si       1.36658133       4.04732677       4.08559875       0.71508618      -0.33895051       0.56648608
Si       2.71069448      -0.00635776       2.77390506       0.84082708      -0.06091944      -0.11973283
Si       4.05196768       1.41824625       4.11568951       0.78568479       0.00008842      -0.91015739
Si       2.74135112       2.83397995       0.06505381      -0.05531862       0.05489705      -0.62583031
Si       4.19094398       4.13267482       1.44933826       0.01546118      -0.83783044       0.03813370
8
Lattice="5.4709021605 0.0 0.0 0.0 5.4709021605 0.0 0.0 0.0 5.4709021605" Properties=species:S:1:pos:R:3:momenta:R:3 time_fs=1580.0 temperature_K=135.44245724539178 pbc="T T T"
Si      -0.04134485       0.00987512      -0.04198812      -0.07286741      -0.15267640       1.13933922
Si       1.36051774       1.36787491       1.33858373      -0.86262598       0.87708228       0.87491575
Si      -0.03281159       2.65209846       2.67827283      -0.33580732       0.52407401      -0.14467266
Si       1.38308430       4.04131488       4.10281170       0.19128415       0.03577962       0.37532694
Si       2.74269486      -0.00785718       2.76576596       0.92599383      -0.02754804      -0.33787671
Si       4.07639144       1.41534074       4.08609631       0.58695188      -0.17841348      -0.72708122
Si       2.74455845       2.82611455       0.04242039       0.24282604      -0.53733993      -0.63412568
Si       4.17961613       4.10794499       1.44074369      -0.67575519      -0.54095806      -0.54582564
8
Lattice="5.4709021605 0.0 0.0 0.0 5.4709021605 0.0 0.0 0.0 5.4709021605" Properties=species:S:1:pos:R:3:momenta:R:3 time_fs=1590.0 temperature_K=167.04729199795435 pbc="T T T"
Si      -0.03575860       0.00271446      -0.00146318       0.37305742      -0.23136821       1.12376670
Si       1.33627772       1.39219347       1.36589896      -0.46080004       0.47771373       0.66041886
Si      -0.03313243       2.67861888       2.68509808       0.28299655       1.00930891       0.53285991
Si       1.37991335       4.05139004       4.11039322      -0.33640471       0.54022643       0.06232060
Si       2.77057912      -0.00827477       2.75102626       0.59855457       0.00742660      -0.49156445
Si       4.09301080       1.40487100       4.06808548       0.38516786      -0.43074907      -0.27010662
Si       2.75662926       2.79570736       0.02183420       0.39493765      -1.18491823      -0.54711674
Si       4.14518726       4.09548604       1.41183345      -1.23750931      -0.18764016      -1.07057827
8
Lattice="5.4709021605 0.0 0.0 0.0 5.4709021605 0.0 0.0 0.0 5.4709021605" Properties=species:S:1:pos:R:3:momenta:R:3 time_fs=1600.0 temperature_K=226.97588305518738 pbc="T T T"
Si      -0.01769070      -0.00453021       0.03310715       0.61452589      -0.16168249       0.81156827
Si       1.33119146       1.40019722       1.38422770       0.18322163      -0.01168803       0.39892763
Si      -0.01717406       2.72260787       2.71321229       0.55606092       1.47692612       1.01252981
Si       1.36399444       4.07766297       4.10894961      -0.49325055       0.92680581      -0.10462269
Si       2.78065853      -0.00690525       2.73248277      -0.05589103       0.07740761      -0.55041619
Si       4.10581345       1.38494690       4.06801725       0.38854256      -0.70386169       0.25491530
Si       2.76744613       2.74610256       0.00289724       0.15321422      -1.59042212      -0.55887316
Si       4.09846724       4.09262443       1.36981247      -1.34642365      -0.01348522      -1.26402897
8
Lattice="5.4709021605 0.0 0.0 0.0 5.4709021605 0.0 0.0 0.0 5.4709021605" Properties=species:S:1:pos:R:3:momenta:R:3 time_fs=1610.0 temperature_K=233.67974616778335 pbc="T T T"
Si       0.00401129      -0.00772259       0.05353086       0.58607430      -0.01759501       0.34990042
Si       1.34772112       1.39355798       1.39546034       0.71070102      -0.31861136       0.27163660
Si       0.00079998       2.77775382       2.75036697       0.41007119       1.59260049       1.02526873
Si       1.35089553       4.11344050       4.10608707      -0.18961385       1.07873084      -0.01943369
Si       2.76659206      -0.00268570       2.71398948      -0.71357499       0.15961136      -0.48328499
Si       4.12256371       1.35662877       4.08364183       0.58802377      -0.89163044       0.58801911
Si       2.76372435       2.68944350      -0.01836299      -0.38995583      -1.57339862      -0.66118853
Si       4.05639845       4.09229020       1.32799292      -1.00172561      -0.02970726      -1.07091765
8
Lattice="5.4709021605 0.0 0.0 0.0 5.4709021605 0.0 0.0 0.0 5.4709021605" Properties=species:S:1:pos:R:3:momenta:R:3 time_fs=1620.0 temperature_K=168.65317678059938 pbc="T T T"
Si       0.02142980      -0.00607409       0.05857010       0.39864647       0.10123285      -0.02830958
Si       1.37561894       1.38186619       1.40464817       0.79077128      -0.29202023       0.26141374
Si       0.00852812       2.82783894       2.77965921       0.01237490       1.19124153       0.59509270
Si       1.35353600       4.15035471       4.10949117       0.34955468       0.99084792       0.22490486
Si       2.73554999       0.00333911       2.70047933      -0.96435332       0.16339120      -0.26264031
Si       4.14663239       1.32486943       4.10495888       0.75934471      -0.88301116       0.56693280
Si       2.74090510       2.64101865      -0.04286257      -0.87138071      -1.13434578      -0.72434563
Si       4.03050615       4.08949355       1.29776218      -0.47495801      -0.13733634      -0.63304859
8
Lattice="5.4709021605 0.0 0.0 0.0 5.4709021605 0.0 0.0 0.0 5.4709021605" Properties=species:S:1:pos:R:3:momenta:R:3 time_fs=1630.0 temperature_K=77.9752345544013 pbc="T T T"
Si       0.03208891      -0.00165201       0.05475392       0.22368951       0.13457464      -0.13827547
Si       1.39638220       1.37660773       1.41340046       0.31251475       0.02756135       0.22616478
Si       0.00216625       2.85711618       2.79026674      -0.34430157       0.45293017       0.01647352
Si       1.37364380       4.17965502       4.12125709       0.74617271       0.63879542       0.42303662
Si       2.70662074       0.00706552       2.69715801      -0.58717092       0.02943568       0.08507467
Si       4.17231807       1.29810506       4.11922248       0.64921618      -0.59992693       0.20104878
Si       2.70743016       2.61314621      -0.06767401      -0.96195859      -0.43591406      -0.67214961
Si       4.02205636       4.08266277       1.28432179      -0.03816207      -0.24745626      -0.14137329
8
Lattice="5.4709021605 0.0 0.0 0.0 5.4709021605 0.0 0.0 0.0 5.4709021605" Properties=species:S:1:pos:R:3:momenta:R:3 time_fs=1640.0 temperature_K=48.645861295539326 pbc="T T T"
Si       0.03805798       0.00219291       0.05195525       0.12699679       0.07208583       0.00632027
Si       1.39388426       1.38477374       1.41966499      -0.46526687       0.42817880       0.12620754
Si      -0.01229844       2.85920727       2.78272505      -0.43000776      -0.31626723      -0.40522921
Si       1.40079807       4.19231713       4.13668808       0.72957836       0.05946823       0.42050042
Si       2.69963492       0.00495317       2.70608261       0.22174895      -0.13937673       0.40102337
Si       4.18807866       1.28563374       4.11703117       0.20816301      -0.08838105      -0.33147558
Si       2.67908732       2.61070799      -0.08811209      -0.59147349       0.27972296      -0.46724316
Si       4.02546372       4.07292055       1.28667143       0.20026102      -0.29543080       0.24989635
8
Lattice="5.4709021605 0.0 0.0 0.0 5.4709021605 0.0 0.0 0.0 5.4709021605" Properties=species:S:1:pos:R:3:momenta:R:3 time_fs=1650.0 temperature_K=106.55980500827746 pbc="T T T"
Si       0.04086855       0.00294380       0.05553301       0.02064883      -0.02806742       0.17986386
Si       1.36626002       1.40416782       1.42219412      -1.03989791       0.62867884       0.01927164
Si      -0.02473711       2.83729534       2.76516448      -0.24934319      -0.88996496      -0.55329975
Si       1.41995698       4.18347255       4.14801980       0.31460598      -0.54748608       0.19173618
Si       2.72124885      -0.00101467       2.72254115       0.95746845      -0.17240179       0.49460525
Si       4.18549247       1.29226536       4.09756970      -0.34942433       0.45280023      -0.73285011
Si       2.66927924       2.63048208      -0.09808416       0.05300496       0.80685173      -0.06906187
Si       4.03433748       4.06309421       1.29976838       0.29293719      -0.25041055       0.46973480
8
Lattice="5.4709021605 0.0 0.0 0.0 5.4709021605 0.0 0.0 0.0 5.4709021605" Properties=species:S:1:pos:R:3:momenta:R:3 time_fs=1660.0 temperature_K=159.88128030903948 pbc="T T T"
Si       0.03807069       0.00070198       0.06207684      -0.20373209      -0.08988682       0.14839876
Si       1.32811348       1.42456099       1.42074036      -1.02633242       0.47461187      -0.11293138
Si      -0.02886080       2.80097681       2.74681475       0.00663504      -1.12010730      -0.46244052
Si       1.42084642       4.15661217       4.14800725      -0.26705618      -0.93715567      -0.21314574
Si       2.76037504      -0.00551308       2.73769169       1.16749862      -0.07341432       0.33499583
Si       4.16575660       1.31528012       4.07053959      -0.73013661       0.82495652      -0.73109433
Si       2.68259100       2.66365078      -0.09096098       0.68038393       1.03807110       0.49344764
Si       4.04581404       4.05643670       1.31779699       0.37273972      -0.11707538       0.54276974
8
Lattice="5.4709021605 0.0 0.0 0.0 5.4709021605 0.0 0.0 0.0 5.4709021605" Properties=species:S:1:pos:R:3:momenta:R:3 time_fs=1670.0 temperature_K=159.50669873931136 pbc="T T T"
Si       0.02542590      -0.00259931       0.06266509      -0.52552827      -0.08886507      -0.15684615
Si       1.30218591       1.43337120       1.41326507      -0.36313745      -0.01690035      -0.32909140
Si      -0.02574306       2.76364763       2.73456166       0.14338978      -0.95464020      -0.22389098
Si       1.40273293       4.12172077       4.13285039      -0.72600386      -1.00615593      -0.63625639
Si       2.79486176      -0.00619244       2.74407431       0.69944374       0.02556768       0.01422267
Si       4.13829479       1.34712930       4.05205428      -0.78678385       0.95501546      -0.25626315
Si       2.71336971       2.69990929      -0.06379088       1.01004917       0.99919547       1.03329071
Si       4.06157854       4.05572004       1.33702656       0.54857074       0.08678294       0.55483469
8
Lattice="5.4709021605 0.0 0.0 0.0 5.4709021605 0.0 0.0 0.0 5.4709021605" Properties=species:S:1:pos:R:3:momenta:R:3 time_fs=1680.0 temperature_K=176.70162767922966 pbc="T T T"
Si       0.00200533      -0.00491982       0.04897433      -0.78600582      -0.03702237      -0.64171583
Si       1.30654574       1.42165933       1.39732010       0.62023854      -0.65143783      -0.57565115
Si      -0.02040349       2.73676912       2.73107805       0.15151222      -0.57559071       0.00655929
Si       1.37401990       4.08932581       4.10619035      -0.85196164      -0.80896329      -0.83261834
Si       2.80413449      -0.00440197       2.73867967      -0.20341727       0.07022551      -0.30523616
Si       4.11342287       1.37924395       4.05564681      -0.61615177       0.84138610       0.47242799
Si       2.74777744       2.73185132      -0.02205508       0.87962664       0.81384433       1.28968874
Si       4.08520419       4.06317874       1.35687225       0.80615911       0.34755827       0.58654545
8
Lattice="5.4709021605 0.0 0.0 0.0 5.4709021605 0.0 0.0 0.0 5.4709021605" Properties=species:S:1:pos:R:3:momenta:R:3 time_fs=1690.0 temperature_K=225.82162014157458 pbc="T T T"
Si      -0.02647039      -0.00489921       0.01802566      -0.78434380       0.03863984      -1.10352531
Si       1.34261401       1.38974819       1.37426380       1.35496277      -1.12280243      -0.71963202
Si      -0.01487786       2.72173287       2.73289332       0.17893658      -0.33149784       0.06160256
Si       1.34724498       4.06731379       4.07885601      -0.63161602      -0.42483769      -0.67236625
Si       2.78141052      -0.00150508       2.72509593      -1.04152288       0.09209260      -0.42364767
Si       4.09512884       1.40352939       4.08336143      -0.44784332       0.52130034       1.05473241
Si       2.77064881       2.75650994       0.02191716       0.39204176       0.59955894       1.16763741
Si       4.11700757       4.08027659       1.37829319       0.97938492       0.62754624       0.63519886
8
Lattice="5.4709021605 0.0 0.0 0.0 5.4709021605 0.0 0.0 0.0 5.4709021605" Properties=species:S:1:pos:R:3:momenta:R:3 time_fs=1700.0 temperature_K=214.96911355412698 pbc="T T T"
Si      -0.04847339      -0.00256695      -0.02509041      -0.41341650       0.08391599      -1.29942595
Si       1.39326696       1.34758221       1.34817024       1.41052534      -1.21672545      -0.76606214
Si      -0.00670804       2.70982057       2.73340131       0.30291889      -0.39900208      -0.04880200
Si       1.33188002       4.06060369       4.06223508      -0.23726069       0.04069184      -0.25236350
Si       2.73741675       0.00139815       2.71289289      -1.36186075       0.05741122      -0.21610158
Si       4.08021237       1.41498300       4.12385417      -0.43586199       0.14038373       1.16709184
Si       2.77475730       2.77454003       0.05677077      -0.13603788       0.44883143       0.80209325
Si       4.15035451       4.10634579       1.40047243       0.87099358       0.84449332       0.61357007
8
Lattice="5.4709021605 0.0 0.0 0.0 5.4709021605 0.0 0.0 0.0 5.4709021605" Properties=species:S:1:pos:R:3:momenta:R:3 time_fs=1710.0 temperature_K=135.692463624166 pbc="T T T"
Si      -0.05230086       0.00001747      -0.06790956       0.21457488       0.05149181      -1.07703015
Si       1.43274883       1.30941366       1.32052407       0.74880191      -0.90806702      -0.81819232
Si       0.00683239       2.69169654       2.72930507       0.46952151      -0.64392215      -0.17677789
Si       1.33009296       4.06876480       4.06151549       0.11313509       0.38559672       0.19588967
Si       2.69422971       0.00121798       2.71350812      -1.00312379      -0.08061292       0.28564250
Si       4.06285620       1.41476032       4.15862665      -0.57147973      -0.12494004       0.74210658
Si       2.76384108       2.78933533       0.07746309      -0.43946286       0.41756280       0.38477978
Si       4.17440617       4.13750039       1.41967356       0.46803300       0.90289080       0.46358182
8
Lattice="5.4709021605 0.0 0.0 0.0 5.4709021605 0.0 0.0 0.0 5.4709021605" Properties=species:S:1:pos:R:3:momenta:R:3 time_fs=1720.0 temperature_K=92.83981107937926 pbc="T T T"
Si      -0.03437145       0.00075392      -0.09625959       0.76310949      -0.00264208      -0.50322042
Si       1.44191309       1.28659130       1.29165581      -0.22696580      -0.38448947      -0.80162125
Si       0.02520189       2.66607357       2.72201688       0.55546330      -0.78125865      -0.22401579
Si       1.33785680       4.08369647       4.07389578       0.30252850       0.40379889       0.47367647
Si       2.67222943      -0.00392984       2.73313211      -0.22442282      -0.18916328       0.80434550
Si       4.04047162       1.40807893       4.17206855      -0.68434493      -0.23681217       0.00497856
Si       2.74730652       2.80473058       0.08435217      -0.46549288       0.46702397       0.02168333
Si       4.18209860       4.16671154       1.43184478      -0.01987486       0.72354278       0.22417360
8
Lattice="5.4709021605 0.0 0.0 0.0 5.4709021605 0.0 0.0 0.0 5.4709021605" Properties=species:S:1:pos:R:3:momenta:R:3 time_fs=1730.0 temperature_K=94.60578107106488 pbc="T T T"
Si      -0.00417112       0.00081434      -0.10200521       0.86997652       0.02116102       0.16487395
Si       1.42007610       1.28217433       1.26792014      -0.93678568       0.11794355      -0.49510331
Si       0.04322094       2.64061859       2.71462248       0.43255252      -0.61916744      -0.18736226
Si       1.34966249       4.09288880       4.09184107       0.35610297       0.07738308       0.51337261
Si       2.67776825      -0.00951077       2.76539081       0.49474558      -0.09439486       0.95696878
Si       4.01798610       1.39918063       4.15979167      -0.54423064      -0.26012675      -0.66483371
Si       2.73331819       2.82134529       0.07988082      -0.31658270       0.45902371      -0.26415321
Si       4.17484553       4.18519527       1.43526471      -0.35577857       0.29817770      -0.02376284
8
Lattice="5.4709021605 0.0 0.0 0.0 5.4709021605 0.0 0.0 0.0 5.4709021605" Properties=species:S:1:pos:R:3:momenta:R:3 time_fs=1740.0 temperature_K=85.39205111152779 pbc="T T T"
Si       0.02001952       0.00263457      -0.08696797       0.43454609       0.07580846       0.64529058
Si       1.38365879       1.29390246       1.26088345      -1.03499596       0.54071348       0.13401866
Si       0.05251524       2.62621587       2.70952935       0.06185975      -0.16399613      -0.09674953
Si       1.36189161       4.08787591       4.10739316       0.33109172      -0.35104300       0.34686116
Si       2.70201354      -0.00922916       2.79411544       0.80808263       0.10700831       0.60714904
Si       4.00662817       1.39099404       4.13004495      -0.04851336      -0.18618091      -0.95637931
Si       2.72579315       2.83428071       0.06688274      -0.11019721       0.23431586      -0.46240122
Si       4.16018647       4.18603208       1.43082535      -0.44187368      -0.25662606      -0.21778938
8
Lattice="5.4709021605 0.0 0.0 0.0 5.4709021605 0.0 0.0 0.0 5.4709021605" Properties=species:S:1:pos:R:3:momenta:R:3 time_fs=1750.0 temperature_K=102.77687195411718 pbc="T T T"
Si       0.02293976       0.00495716      -0.06071092      -0.27575543       0.03759295       0.80464103
Si       1.35437190       1.31888688       1.27846145      -0.56967991       0.86260788       0.85954576
Si       0.04589094       2.63111986       2.70828864      -0.44653596       0.45998744       0.03103710
Si       1.37175510       4.07120232       4.11461041       0.21426379      -0.54004567       0.05357992
Si       2.72852909      -0.00358839       2.80367084       0.63683136       0.18270900      -0.09678402
Si       4.01741206       1.38775221       4.09859581       0.68130378       0.01720937      -0.76767379
Si       2.72574249       2.83440505       0.04885223       0.10845670      -0.26986987      -0.54885776
Si       4.14606515       4.16797138       1.42093803      -0.34888434      -0.75019110      -0.33548824
8
Lattice="5.4709021605 0.0 0.0 0.0 5.4709021605 0.0 0.0 0.0 5.4709021605" Properties=species:S:1:pos:R:3:momenta:R:3 time_fs=1760.0 temperature_K=191.19277234636976 pbc="T T T"
Si       0.00305079       0.00443585      -0.03324275      -0.79149044      -0.06859701       0.74661606
Si       1.34602446       1.35159654       1.31826173       0.08396938       0.96016649       1.35387577
Si       0.02249360       2.65846775       2.71189632      -0.84916946       1.08883857       0.17451786
Si       1.37563401       4.05481113       4.11112472      -0.00533569      -0.33452960      -0.23972692
Si       2.74346935       0.00163807       2.78707123       0.20586765       0.10123131      -0.82194380
Si       4.05300501       1.39201299       4.07998555       1.29891078       0.20021356      -0.27210138
Si       2.73327679       2.81356268       0.02966752       0.31575525      -0.92630812      -0.53654975
Si       4.13575247       4.13618149       1.40794216      -0.25850747      -1.02101520      -0.40468783
8
Lattice="5.4709021605 0.0 0.0 0.0 5.4709021605 0.0 0.0 0.0 5.4709021605" Properties=species:S:1:pos:R:3:momenta:R:3 time_fs=1770.0 temperature_K=253.84185393557584 pbc="T T T"
Si      -0.02606879       0.00069025      -0.00882200      -0.77370469      -0.13290033       0.65538161
Si       1.35726892       1.38280971       1.36803403       0.49015780       0.78684333       1.41503025
Si      -0.00912581       2.70497339       2.72018436      -0.88262744       1.51904443       0.29257707
Si       1.37122686       4.05103457       4.09965227      -0.23620729       0.14573233      -0.37981843
Si       2.74429576       0.00336864       2.75038505      -0.11503757       0.00374412      -1.19301906
Si       4.10249192       1.39862668       4.07924799       1.43274550       0.12355410       0.20014616
Si       2.74680083       2.77112465       0.01166760       0.43382737      -1.45398969      -0.49330293
Si       4.12581679       4.10007860       1.39235718      -0.34915368      -0.99202828      -0.49699467
8
Lattice="5.4709021605 0.0 0.0 0.0 5.4709021605 0.0 0.0 0.0 5.4709021605" Properties=species:S:1:pos:R:3:momenta:R:3 time_fs=1780.0 temperature_K=209.00089587812442 pbc="T T T"
Si      -0.04485284      -0.00397235       0.01327930      -0.23185832      -0.12250292       0.61916869
Si       1.37484154       1.40508959       1.41230855       0.43745895       0.48076465       1.05690324
Si      -0.03424533       2.76018108       2.73190554      -0.49894002       1.56447397       0.37176065
Si       1.36072823       4.06555521       4.08740777      -0.32965248       0.67516477      -0.27904175
Si       2.73906263       0.00226877       2.70987667      -0.13287302      -0.06464668      -1.03634027
Si       4.14698307       1.39731411       4.09071242       1.04307895      -0.23274883       0.39678192
Si       2.76140297       2.71628801      -0.00503194       0.36255132      -1.60742406      -0.46457606
Si       4.10878621       4.06998207       1.37224817      -0.64976537      -0.69308089      -0.66465642
8
Lattice="5.4709021605 0.0 0.0 0.0 5.4709021605 0.0 0.0 0.0 5.4709021605" Properties=species:S:1:pos:R:3:momenta:R:3 time_fs=1790.0 temperature_K=142.47113677087984 pbc="T T T"
Si      -0.03973076      -0.00722821       0.03502061       0.52611245      -0.05567845       0.62647059
Si       1.38365809       1.41674099       1.43904079       0.03023389       0.19539151       0.45110738
Si      -0.04234524       2.80954482       2.74561786       0.02680035       1.19920276       0.39897562
Si       1.35102734       4.09658929       4.08261906      -0.18158453       1.06198653       0.03206206
Si       2.73766983      -0.00109340       2.68279960       0.07341170      -0.12397102      -0.46477478
Si       4.17291798       1.38128268       4.10284337       0.43534507      -0.68067355       0.24377366
Si       2.76929802       2.66386450      -0.02095934       0.04921012      -1.32176575      -0.44755269
Si       4.08021123       4.05300581       1.34572453      -0.95952906      -0.27449203      -0.84006184
8
Lattice="5.4709021605 0.0 0.0 0.0 5.4709021605 0.0 0.0 0.0 5.4709021605" Properties=species:S:1:pos:R:3:momenta:R:3 time_fs=1800.0 temperature_K=131.29218985894252 pbc="T T T"
Si      -0.01042427      -0.00740721       0.05673602       1.08378584       0.04967604       0.60176142
Si       1.37648913       1.41939869       1.44412483      -0.41789463      -0.03602138      -0.13290714
Si      -0.03482963       2.84122015       2.75846613       0.35064254       0.59086119       0.31303530
Si       1.35065905       4.13641587       4.09058730       0.18750947       1.15599205       0.42162868
Si       2.74412381      -0.00566266       2.67859019       0.27512099      -0.12002633       0.21134561
Si       4.17884519       1.35108634       4.10533865      -0.05835233      -1.01083054      -0.11245902
Si       2.76273520       2.62764174      -0.03651266      -0.44028905      -0.71219353      -0.44639571
Si       4.04510800       4.05001357       1.31537602      -0.98052283       0.08254251      -0.85600914
8
Lattice="5.4709021605 0.0 0.0 0.0 5.4709021605 0.0 0.0 0.0 5.4709021605" Properties=species:S:1:pos:R:3:momenta:R:3 time_fs=1810.0 temperature_K=131.50971880961913 pbc="T T T"
Si       0.03004849      -0.00381450       0.07565006       1.13279657       0.14787590       0.45271892
Si       1.35749530       1.41480722       1.43292073      -0.60960454      -0.21360981      -0.44964465
Si      -0.02155389       2.85066203       2.76615743       0.36149621      -0.03848303       0.11411609
Si       1.36483475       4.17297308       4.11086745       0.61379066       0.87037629       0.70590755
Si       2.75465071      -0.00822816       2.69486948       0.28874933      -0.01310509       0.65947376
Si       4.17197121       1.31394259       4.09594157      -0.28832138      -1.05352346      -0.38897779
Si       2.73879784       2.61523387      -0.05258396      -0.90284789      -0.00037175      -0.47720289
Si       4.01646208       4.05713035       1.28888372      -0.59605896       0.30084096      -0.61639098
8
Lattice="5.4709021605 0.0 0.0 0.0 5.4709021605 0.0 0.0 0.0 5.4709021605" Properties=species:S:1:pos:R:3:momenta:R:3 time_fs=1820.0 temperature_K=99.52389221678972 pbc="T T T"
Si       0.06238311       0.00183647       0.08634300       0.63908805       0.15305362       0.12962882
Si       1.33808729       1.40586780       1.41685367      -0.44430990      -0.27107230      -0.41417435
Si      -0.01185098       2.84014297       2.76622196       0.17548076      -0.53201396      -0.10432826
Si       1.39154560       4.19357189       4.13705445       0.86451915       0.27135636       0.74292731
Si       2.76191265      -0.00636086       2.71980037       0.09970862       0.11176161       0.69235403
Si       4.16155112       1.28194476       4.08150798      -0.27433684      -0.70984802      -0.38272859
Si       2.70277004       2.62616935      -0.06974196      -1.09332120       0.58908653      -0.49086200
Si       4.00630764       4.06953409       1.27466700       0.03317135       0.38767617      -0.17281695
8
Lattice="5.4709021605 0.0 0.0 0.0 5.4709021605 0.0 0.0 0.0 5.4709021605" Properties=species:S:1:pos:R:3:momenta:R:3 time_fs=1830.0 temperature_K=72.15700610499141 pbc="T T T"
Si       0.07137278       0.00533878       0.08317392      -0.13910791       0.03048382      -0.32123965
Si       1.32926011       1.39763666       1.40664229      -0.03956519      -0.18102441      -0.15348192
Si      -0.00947193       2.81589565       2.75984302      -0.02835115      -0.81672484      -0.23957833
Si       1.42070582       4.19124584       4.15919262       0.72302766      -0.38575769       0.46782638
Si       2.76064719      -0.00150862       2.73883678      -0.17105768       0.14680515       0.34979594
Si       4.15417869       1.26830328       4.07244070      -0.14373682      -0.02790060      -0.10217007
Si       2.66772228       2.65297833      -0.08493364      -0.82345451       0.88283240      -0.33301296
Si       4.01829154       4.08281656       1.27751079       0.62224561       0.35128618       0.33186059
8
Lattice="5.4709021605 0.0 0.0 0.0 5.4709021605 0.0 0.0 0.0 5.4709021605" Properties=species:S:1:pos:R:3:momenta:R:3 time_fs=1840.0 temperature_K=97.94040567144877 pbc="T T T"
Si       0.05425109       0.00366269       0.06435755      -0.78397616      -0.11732503      -0.72980614
Si       1.33513270       1.39349809       1.40537802       0.35053875      -0.06664751       0.04577764
Si      -0.01230729       2.78567225       2.75116816      -0.10375295      -0.87437800      -0.23115800
Si       1.43634486       4.16961209       4.16601016       0.09621905      -0.79239821      -0.12533615
Si       2.75116479       0.00285565       2.74292255      -0.33878615       0.09421920      -0.10646991
Si       4.15036262       1.28124079       4.07527579      -0.10935423       0.75795181       0.25604580
Si       2.65116703       2.68339406      -0.08915501      -0.04903593       0.79670017       0.14977105
Si       4.04659068       4.09277087       1.29674926       0.93814762       0.20187758       0.74117569
8
Lattice="5.4709021605 0.0 0.0 0.0 5.4709021605 0.0 0.0 0.0 5.4709021605" Properties=species:S:1:pos:R:3:momenta:R:3 time_fs=1850.0 temperature_K=186.28166546556207 pbc="T T T"
Si       0.02171098      -0.00159518       0.03475284      -0.99653433      -0.16063117      -0.91854448
Si       1.35105183       1.39149182       1.40640978       0.51354378      -0.07423550      -0.04029572
Si      -0.01449763       2.75700433       2.74510851       0.00770357      -0.73967052      -0.10311522
Si       1.42427590       4.13951353       4.14865401      -0.78920914      -0.89340666      -0.86014882
Si       2.73970121       0.00497249       2.73374879      -0.27761331       0.03035586      -0.36721668
Si       4.14347674       1.31875274       4.08861808      -0.32706418       1.32656165       0.47129660
Si       2.66714149       2.70627552      -0.07159800       0.95748355       0.51174661       0.86579933
Si       4.07984597       4.09629123       1.32701247       0.91169006      -0.00072028       0.95222498
8
Lattice="5.4709021605 0.0 0.0 0.0 5.4709021605 0.0 0.0 0.0 5.4709021605" Properties=species:S:1:pos:R:3:momenta:R:3 time_fs=1860.0 temperature_K=271.1512413411503 pbc="T T T"
Si      -0.01069214      -0.00616479       0.00299332      -0.80699967      -0.08585617      -0.86404935
Si       1.36813430       1.38668058       1.39951425       0.43120408      -0.21804312      -0.38181396
Si      -0.01051248       2.73484702       2.74392506       0.22224689      -0.52914138       0.02093438
Si       1.38442653       4.10824381       4.10904315      -1.39737221      -0.88667214      -1.32412304
Si       2.73362285       0.00532499       2.72104778      -0.06060327      -0.00579993      -0.30804222
Si       4.12572476       1.36877218       4.10565866      -0.68849243       1.44940845       0.46861502
Si       2.71410906       2.72149980      -0.03034976       1.62323635       0.41204588       1.43567759
Si       4.10789360       4.09350291       1.36087401       0.67678027      -0.13594159       0.95280157
8
Lattice="5.4709021605 0.0 0.0 0.0 5.4709021605 0.0 0.0 0.0 5.4709021605" Properties=species:S:1:pos:R:3:momenta:R:3 time_fs=1870.0 temperature_K=235.1104230175621 pbc="T T T"
Si      -0.03288031      -0.00710002      -0.02418302      -0.45554291       0.03180171      -0.68019606
Si       1.37998109       1.37567010       1.37918122       0.24270122      -0.41042832      -0.76840785
Si      -0.00017497       2.71867753       2.74463442       0.33328209      -0.43037357      -0.01886657
Si       1.33475107       4.07881807       4.06303180      -1.31413579      -0.75977100      -1.19788056
Si       2.73474245       0.00472571       2.71489655       0.09756418      -0.02826346      -0.02020256
Si       4.09714312       1.41445368       4.11940395      -0.89857692       1.09138450       0.29562845
Si       2.77157848       2.73844532       0.02367421       1.52336682       0.58748015       1.57195153
Si       4.12756554       4.08901609       1.39206735       0.47134131      -0.08183002       0.81797362
8
Lattice="5.4709021605 0.0 0.0 0.0 5.4709021605 0.0 0.0 0.0 5.4709021605" Properties=species:S:1:pos:R:3:momenta:R:3 time_fs=1880.0 temperature_K=119.49827441044181 pbc="T T T"
Si      -0.04308812      -0.00443461      -0.04453014      -0.14461201       0.10874358      -0.48847950
Si       1.38561009       1.35862013       1.34777452       0.09349844      -0.54880330      -0.98583023
Si       0.00983580       2.70184035       2.73986607       0.20140965      -0.56983704      -0.28412712
Si       1.30054878       4.05827921       4.03214537      -0.55485466      -0.37292455      -0.49169640
Si       2.73802904       0.00329721       2.72010785       0.05487526      -0.05395999       0.30916918
Si       4.06658357       1.44162683       4.12549359      -0.79976455       0.43815063       0.05225053
Si       2.81212680       2.76296308       0.07402081       0.70318542       0.79653637       1.23134989
Si       4.14306052       4.09051428       1.41782842       0.44626245       0.20209430       0.65736363
8
Lattice="5.4709021605 0.0 0.0 0.0 5.4709021605 0.0 0.0 0.0 5.4709021605" Properties=species:S:1:pos:R:3:momenta:R:3 time_fs=1890.0 temperature_K=90.30155868895947 pbc="T T T"
Si      -0.04427829      -0.00040336      -0.05879821       0.05958154       0.10973845      -0.33250665
Si       1.38761795       1.33858978       1.31355831       0.03511552      -0.57669862      -0.92107023
Si       0.01280855       2.67779098       2.72431564      -0.02056011      -0.79065528      -0.58297056
Si       1.29869520       4.05390168       4.03125504       0.43703533       0.10734479       0.43476756
Si       2.73670897       0.00103001       2.73501889      -0.14442789      -0.07233992       0.51246671
Si       4.04361561       1.44524517       4.12390036      -0.49528265      -0.20652511      -0.12140740
Si       2.81748219       2.79197585       0.10536274      -0.39562197       0.82625090       0.51512410
Si       4.16005630       4.10457636       1.43809370       0.52416023       0.60288479       0.49559649
8
Lattice="5.4709021605 0.0 0.0 0.0 5.4709021605 0.0 0.0 0.0 5.4709021605" Properties=species:S:1:pos:R:3:momenta:R:3 time_fs=1900.0 temperature_K=140.08638091033538 pbc="T T T"
Si      -0.03975837       0.00262705      -0.06788477       0.19250823       0.05822792      -0.18440720
Si       1.38861831       1.31960921       1.28644441       0.02307471      -0.49068657      -0.59378509
Si       0.01053614       2.64931266       2.70217608      -0.06943330      -0.78244370      -0.62640820
Si       1.32724190       4.06293697       4.05948748       1.10650473       0.35492569       1.10631518
Si       2.72805143      -0.00138856       2.75354647      -0.33352231      -0.05928817       0.51248204
Si       4.03219335       1.42990404       4.11869793      -0.16609238      -0.62223330      -0.15432922
Si       2.78773141       2.81855526       0.10877175      -1.21901889       0.66773614      -0.30791755
Si       4.17809233       4.13114985       1.45146713       0.46597921       0.87376199       0.24805005
8
Lattice="5.4709021605 0.0 0.0 0.0 5.4709021605 0.0 0.0 0.0 5.4709021605" Properties=species:S:1:pos:R:3:momenta:R:3 time_fs=1910.0 temperature_K=134.27904426320143 pbc="T T T"
Si      -0.03095031       0.00350460      -0.07130766       0.31125488      -0.00805303      -0.00440947
Si       1.38890191       1.30544977       1.27360383      -0.01482666      -0.30269270      -0.13136558
Si       0.01033074       2.62697440       2.68428267       0.08021567      -0.44370780      -0.35051968
Si       1.36874013       4.07537435       4.10235987       1.15195060       0.32391028       1.24275271
Si       2.71532112      -0.00269348       2.76879264      -0.36058042      -0.01124787       0.33606594
Si       4.03094055       1.40532324       4.11410325       0.07575786      -0.73116995      -0.10203921
Si       2.74003708       2.83695245       0.08681533      -1.37936911       0.35513315      -0.87638101
Si       4.18938525       4.16182115       1.45405655       0.13559718       0.81782792      -0.11410370
8
Lattice="5.4709021605 0.0 0.0 0.0 5.4709021605 0.0 0.0 0.0 5.4709021605" Properties=species:S:1:pos:R:3:momenta:R:3 time_fs=1920.0 temperature_K=65.71253831527116 pbc="T T T"
Si      -0.01814496       0.00221178      -0.06780115       0.41346918      -0.06120312       0.20815026
Si       1.38712230       1.29950026       1.27706530      -0.08974214      -0.02392644       0.31753074
Si       0.01665423       2.62116660       2.67998939       0.27346934       0.14212669       0.12434442
Si       1.40013609       4.08492158       4.13899375       0.54823856       0.23233327       0.75051002
Si       2.70502554      -0.00213449       2.77598169      -0.20324766       0.04030476       0.06731453
Si       4.03633244       1.38208155       4.11157502       0.22116144      -0.55796630      -0.04637936
Si       2.70019696       2.84080302       0.05372346      -0.78383847      -0.17697148      -0.91925604
Si       4.18538388       4.18415619       1.44317901      -0.37951024       0.40530261      -0.50221457
8
Lattice="5.4709021605 0.0 0.0 0.0 5.4709021605 0.0 0.0 0.0 5.4709021605" Properties=species:S:1:pos:R:3:momenta:R:3 time_fs=1930.0 temperature_K=87.95215174005735 pbc="T T T"
Si      -0.00311032      -0.00022742      -0.05671058       0.42232559      -0.06736804       0.42424292
Si       1.38278565       1.30447367       1.29471999      -0.15130528       0.31348579       0.67516034
Si       0.02797199       2.63809411       2.69318471       0.34064928       0.82706707       0.61532686
Si       1.40317997       4.09259982       4.14983854      -0.37693483       0.21042311      -0.15628904
Si       2.70212122      -0.00021019       2.77342619       0.04112437       0.06440161      -0.20893056
Si       4.04621031       1.36814418       4.11049664       0.34987678      -0.22830024      -0.02080977
Si       2.69041999       2.82253332       0.02779756       0.24358751      -0.86946179      -0.52573689
Si       4.16312768       4.18729899       1.41995344      -0.86932342      -0.25024750      -0.80296387
8
Lattice="5.4709021605 0.0 0.0 0.0 5.4709021605 0.0 0.0 0.0 5.4709021605" Properties=species:S:1:pos:R:3:momenta:R:3 time_fs=1940.0 temperature_K=219.30121393184695 pbc="T T T"
Si       0.00934844      -0.00171052      -0.03843594       0.25926203      -0.00854291       0.61255273
Si       1.37723136       1.32135627       1.32317932      -0.15462709       0.64449585       0.93649201
Si       0.03761169       2.67775205       2.72066043       0.16352346       1.40080157       0.90255574
Si       1.37765110       4.09870754       4.13014308      -0.97932523       0.11798516      -0.89162682
Si       2.70749000       0.00203502       2.76197648       0.25124968       0.05921873      -0.43327604
Si       4.06173534       1.36568438       4.10975858       0.55555856       0.06618461      -0.02635051
Si       2.71412986       2.78242735       0.01631515       1.01386725      -1.35957941      -0.17650712
Si       4.12750867       4.16645439       1.38910937      -1.10950865      -0.92056359      -0.92384000
8
Lattice="5.4709021605 0.0 0.0 0.0 5.4709021605 0.0 0.0 0.0 5.4709021605" Properties=species:S:1:pos:R:3:momenta:R:3 time_fs=1950.0 temperature_K=262.9427309086863 pbc="T T T"
Si       0.01338230      -0.00066016      -0.01478450      -0.03920419       0.06338314       0.72218350
Si       1.37268541       1.34862569       1.35896518      -0.09930821       0.89582700       1.08722198
Si       0.03607518       2.73174379       2.75151366      -0.29584454       1.60438101       0.78188992
Si       1.34327305       4.10048587       4.09480374      -0.86068816       0.00397053      -1.01031474
Si       2.71832352       0.00352458       2.74424116       0.34718729       0.01888784      -0.56099696
Si       4.08615549       1.37054008       4.10826410       0.84933348       0.17233899      -0.06627670
Si       2.75270283       2.73240704       0.01147443       1.06107679      -1.43442670      -0.15506074
Si       4.09010869       4.12603959       1.35822870      -0.96255245      -1.32436180      -0.79864627
8
Lattice="5.4709021605 0.0 0.0 0.0 5.4709021605 0.0 0.0 0.0 5.4709021605" Properties=species:S:1:pos:R:3:momenta:R:3 time_fs=1960.0 temperature_K=190.7667949603099 pbc="T T T"
Si       0.00716507       0.00197418       0.01079325      -0.28909101       0.07407745       0.72437699
Si       1.37013634       1.38229649       1.39723324      -0.05762133       0.99865842       1.06666457
Si       0.01488332       2.78378334       2.77012742      -0.91838372       1.29007505       0.22725282
Si       1.32476744       4.10181134       4.06727392      -0.12638956       0.11737528      -0.47317492
Si       2.73065683       0.00291202       2.72434814       0.34990709      -0.05737297      -0.55098831
Si       4.12071225       1.37493880       4.10449538       1.10187402       0.04161467      -0.15880334
Si       2.78048937       2.68577856       0.00261734       0.44459917      -1.19137967      -0.37620525
Si       4.06389586       4.07921175       1.33581780      -0.50489465      -1.27304824      -0.45912256
8
Lattice="5.4709021605 0.0 0.0 0.0 5.4709021605 0.0 0.0 0.0 5.4709021605" Properties=species:S:1:pos:R:3:momenta:R:3 time_fs=1970.0 temperature_K=146.20758136749092 pbc="T T T"
Si      -0.00391703       0.00377295       0.03515657      -0.29320811       0.02250687       0.66393249
Si       1.36742545       1.41592710       1.43099654      -0.11803089       0.88337451       0.82713916
Si      -0.02527881       2.81839243       2.76652697      -1.28925755       0.67299775      -0.39645503
Si       1.33576875       4.11035971       4.06501576       0.71884089       0.36450848       0.34172465
Si       2.74282961      -0.00031733       2.70746122       0.35315277      -0.11819118      -0.39148228
Si       4.16008843       1.37142996       4.09672676       1.08688607      -0.25967872      -0.28564358
Si       2.78098085       2.65129017      -0.01536970      -0.41136326      -0.75560909      -0.64337708
Si       4.05480922       4.04185151       1.32619235      -0.04701991      -0.80990862      -0.11583833
8
Lattice="5.4709021605 0.0 0.0 0.0 5.4709021605 0.0 0.0 0.0 5.4709021605" Properties=species:S:1:pos:R:3:momenta:R:3 time_fs=1980.0 temperature_K=124.15763015228383 pbc="T T T"
Si      -0.00983513       0.00348142       0.05709620      -0.00270546      -0.03549689       0.58852221
Si       1.36068095       1.44126269       1.45288243      -0.27750590       0.52911995       0.40047091
Si      -0.06702293       2.83158044       2.74761023      -0.97160679       0.10574032      -0.58994894
Si       1.36956068       4.12520962       4.08811849       1.11039618       0.44530240       0.90741929
Si       2.75592046      -0.00438052       2.69824331       0.40023736      -0.09778580      -0.12341090
Si       4.19187446       1.35656543       4.08501035       0.66370601      -0.57877025      -0.37053728
Si       2.75487165       2.63412292      -0.04078552      -1.00544216      -0.21966465      -0.77556056
Si       4.05665634       4.02486449       1.32453100       0.08292076      -0.14844509      -0.03695472
8
Lattice="5.4709021605 0.0 0.0 0.0 5.4709021605 0.0 0.0 0.0 5.4709021605" Properties=species:S:1:pos:R:3:momenta:R:3 time_fs=1990.0 temperature_K=95.95010042042047 pbc="T T T"
Si      -0.00236468       0.00174487       0.07584188       0.43299409      -0.05585277       0.46925492
Si       1.34817905       1.45108201       1.45809165      -0.42082088       0.01748880      -0.10414048
Si      -0.08642480       2.82772738       2.73126441      -0.08421963      -0.29518057      -0.28212837
Si       1.40640073       4.13939544       4.12287271       0.90786780       0.35017431       0.99813144
Si       2.77051284      -0.00617235       2.69911070       0.41747013       0.00460496       0.16770237
Si       4.20311994       1.33264904       4.07213270      -0.04356125      -0.75302984      -0.34194656
Si       2.71684596       2.63531096      -0.06675637      -1.07793631       0.26222713      -0.66453272
Si       4.05643745       4.03096915       1.32014880      -0.13179395       0.46956797      -0.24234060
8
Lattice="5.4709021605 0.0 0.0 0.0 5.4709021605 0.0 0.0 0.0 5.4709021605" Properties=species:S:1:pos:R:3:momenta:R:3 time_fs=2000.0 temperature_K=98.66058298317809 pbc="T T T"
Si       0.01891656       0.00004525       0.08835359       0.73704324      -0.03759016       0.21657455
Si       1.33339098       1.44241592       1.44636094      -0.38170874      -0.49927284      -0.54263877
Si      -0.07286205       2.81341914       2.72987433       0.81240876      -0.48388073       0.19913994
Si       1.42842882       4.14959662       4.15267535       0.30957820       0.24085258       0.64030470
Si       2.78303581      -0.00394990       2.70885816       0.25730750       0.11548039       0.36257911
Si       4.18944069       1.30697903       4.06305896      -0.69845094      -0.66375941      -0.14508947
Si       2.68503724       2.64973626      -0.08422083      -0.67790207       0.51454149      -0.29547220
Si       4.04731844       4.05446416       1.30774598      -0.35827594       0.81362867      -0.43539786
