153
Lattice="10.0 0.0 0.0 0.0 10.0 0.0 0.0 0.0 43.74" Properties=species:S:1:pos:R:3:move_mask:L:1:momenta:R:3 etch=trj_CF2_30eV_case1 idx=0 index=0 source=trj_CF2_30eV_case1/0000/OUTCAR converged=T time_fs=0.0 pbc="T T T"
O        2.28000000       4.48000000      13.83000000  T       0.00000000       0.00000000       0.00000000
O        1.48000000       2.43000000      12.57000000  T       0.00000000       0.00000000       0.00000000
O        3.91000000       2.72000000      14.18000000  T       0.00000000       0.00000000       0.00000000
O        3.82000000       4.56000000      16.06000000  T       0.00000000       0.00000000       0.00000000
O        1.65000000       2.89000000      15.79000000  T       0.00000000       0.00000000       0.00000000
O        5.10000000       1.64000000      16.04000000  T       0.00000000       0.00000000       0.00000000
O        5.26000000       0.82000000      13.25000000  T       0.00000000       0.00000000       0.00000000
O        6.16000000       3.63000000      14.03000000  T       0.00000000       0.00000000       0.00000000
O        7.07000000       1.33000000      14.62000000  T       0.00000000       0.00000000       0.00000000
O        9.07000000       2.29000000      16.26000000  T       0.00000000       0.00000000       0.00000000
O        9.54000000       0.41000000      14.71000000  T       0.00000000       0.00000000       0.00000000
O        0.87000000       9.79000000      12.64000000  T       0.00000000       0.00000000       0.00000000
O        1.23000000       8.21000000      14.65000000  T       0.00000000       0.00000000       0.00000000
O        9.87000000       6.98000000      12.02000000  T       0.00000000       0.00000000       0.00000000
O        5.15000000       6.18000000      14.53000000  T       0.00000000       0.00000000       0.00000000
O        5.59000000       5.63000000      12.17000000  T       0.00000000       0.00000000       0.00000000
O        7.78000000       5.79000000      13.63000000  T       0.00000000       0.00000000       0.00000000
O        5.61000000       8.19000000      12.68000000  T       0.00000000       0.00000000       0.00000000
O        8.54000000       8.40000000      13.64000000  T       0.00000000       0.00000000       0.00000000
O        2.44000000       5.22000000      21.43000000  T       0.00000000       0.00000000       0.00000000
O        0.22000000       6.19000000      22.75000000  T       0.00000000       0.00000000       0.00000000
O        1.83000000       0.12000000      19.96000000  T       0.00000000       0.00000000       0.00000000
O        2.16000000       2.91000000      19.87000000  T       0.00000000       0.00000000       0.00000000
O        3.43000000       1.25000000      18.21000000  T       0.00000000       0.00000000       0.00000000
O        0.92000000       1.48000000      18.01000000  T       0.00000000       0.00000000       0.00000000
O        0.40000000       4.11000000      17.73000000  T       0.00000000       0.00000000       0.00000000
O        9.09000000       1.35000000      21.39000000  T       0.00000000       0.00000000       0.00000000
O        5.42000000       2.96000000      18.39000000  T       0.00000000       0.00000000       0.00000000
O        4.60000000       3.97000000      20.63000000  T       0.00000000       0.00000000       0.00000000
O        7.11000000       2.68000000      20.21000000  T       0.00000000       0.00000000       0.00000000
O        6.45000000       0.41000000      21.41000000  T       0.00000000       0.00000000       0.00000000
O        6.64000000       5.25000000      19.38000000  T       0.00000000       0.00000000       0.00000000
O        7.90000000       9.80000000      16.74000000  T       0.00000000       0.00000000       0.00000000
O        3.87000000       7.04000000      16.86000000  T       0.00000000       0.00000000       0.00000000
O        3.70000000       9.42000000      21.43000000  T       0.00000000       0.00000000       0.00000000
O        3.20000000       7.95000000      19.09000000  T       0.00000000       0.00000000       0.00000000
O        1.31000000       6.62000000      17.79000000  T       0.00000000       0.00000000       0.00000000
O        3.21000000       5.28000000      18.89000000  T       0.00000000       0.00000000       0.00000000
O        0.36000000       5.53000000      19.99000000  T       0.00000000       0.00000000       0.00000000
O        1.55000000       7.69000000      21.02000000  T       0.00000000       0.00000000       0.00000000
O        4.75000000       8.47000000      21.90000000  T       0.00000000       0.00000000       0.00000000
O        8.02000000       0.22000000      19.39000000  T       0.00000000       0.00000000       0.00000000
O        6.92000000       8.85000000      23.74000000  T       0.00000000       0.00000000       0.00000000
O        6.20000000       5.74000000      16.87000000  T       0.00000000       0.00000000       0.00000000
O        5.77000000       0.31000000      18.18000000  T       0.00000000       0.00000000       0.00000000
O        8.72000000       5.97000000      17.91000000  T       0.00000000       0.00000000       0.00000000
O        6.98000000       7.87000000      18.43000000  T       0.00000000       0.00000000       0.00000000
O        2.28000000       4.48000000       3.83000000  T       0.00000000       0.00000000       0.00000000
O        1.48000000       2.43000000       2.57000000  T       0.00000000       0.00000000       0.00000000
O        3.91000000       2.72000000       4.18000000  T       0.00000000       0.00000000       0.00000000
O        3.71000000       4.61000000       6.16000000  T       0.00000000       0.00000000       0.00000000
O        1.72000000       2.93000000       5.80000000  T       0.00000000       0.00000000       0.00000000
O        4.82000000       1.32000000       5.89000000  T       0.00000000       0.00000000       0.00000000
O        5.26000000       0.82000000       3.25000000  T       0.00000000       0.00000000       0.00000000
O        6.16000000       3.63000000       4.03000000  T       0.00000000       0.00000000       0.00000000
O        7.07000000       1.33000000       4.62000000  T       0.00000000       0.00000000       0.00000000
O        8.96000000       2.45000000       6.26000000  T       0.00000000       0.00000000       0.00000000
O        9.54000000       0.41000000       4.71000000  T       0.00000000       0.00000000       0.00000000
O        0.87000000       9.79000000       2.64000000  T       0.00000000       0.00000000       0.00000000
O        1.23000000       8.21000000       4.65000000  T       0.00000000       0.00000000       0.00000000
O        9.87000000       6.98000000       2.02000000  F       0.00000000       0.00000000       0.00000000
O        5.15000000       6.18000000       4.53000000  T       0.00000000       0.00000000       0.00000000
O        5.59000000       5.63000000       2.17000000  F       0.00000000       0.00000000       0.00000000
O        7.78000000       5.79000000       3.63000000  T       0.00000000       0.00000000       0.00000000
O        5.61000000       8.19000000       2.68000000  T       0.00000000       0.00000000       0.00000000
O        8.54000000       8.40000000       3.64000000  T       0.00000000       0.00000000       0.00000000
O        3.55000000       4.18000000      11.53000000  T       0.00000000       0.00000000       0.00000000
O        1.14000000       4.89000000      11.35000000  T       0.00000000       0.00000000       0.00000000
O        1.74000000       0.92000000      10.34000000  T       0.00000000       0.00000000       0.00000000
O        2.79000000       3.09000000       9.32000000  T       0.00000000       0.00000000       0.00000000
O        3.58000000       0.96000000       8.14000000  T       0.00000000       0.00000000       0.00000000
O        1.07000000       1.66000000       7.93000000  T       0.00000000       0.00000000       0.00000000
O        0.43000000       4.17000000       7.89000000  T       0.00000000       0.00000000       0.00000000
O        9.29000000       1.31000000      11.44000000  T       0.00000000       0.00000000       0.00000000
O        5.92000000       2.56000000       7.78000000  T       0.00000000       0.00000000       0.00000000
O        5.26000000       4.03000000       9.71000000  T       0.00000000       0.00000000       0.00000000
O        7.34000000       2.44000000      10.03000000  T       0.00000000       0.00000000       0.00000000
O        6.84000000       0.20000000      11.30000000  T       0.00000000       0.00000000       0.00000000
O        7.52000000       4.86000000       8.96000000  T       0.00000000       0.00000000       0.00000000
O        8.09000000       9.73000000       6.60000000  T       0.00000000       0.00000000       0.00000000
O        4.07000000       7.05000000       6.85000000  T       0.00000000       0.00000000       0.00000000
O        3.95000000       9.60000000      11.25000000  T       0.00000000       0.00000000       0.00000000
O        3.06000000       8.35000000       8.87000000  T       0.00000000       0.00000000       0.00000000
O        1.54000000       6.64000000       7.47000000  T       0.00000000       0.00000000       0.00000000
O        3.35000000       5.61000000       9.01000000  T       0.00000000       0.00000000       0.00000000
O        0.20000000       6.49000000       9.53000000  T       0.00000000       0.00000000       0.00000000
O        2.28000000       7.42000000      11.08000000  T       0.00000000       0.00000000       0.00000000
O        4.99000000       7.36000000      10.21000000  T       0.00000000       0.00000000       0.00000000
O        8.18000000       0.05000000       9.21000000  T       0.00000000       0.00000000       0.00000000
O        7.52000000       7.21000000      11.37000000  T       0.00000000       0.00000000       0.00000000
O        6.18000000       5.50000000       6.88000000  T       0.00000000       0.00000000       0.00000000
O        5.81000000       9.90000000       8.03000000  T       0.00000000       0.00000000       0.00000000
O        8.94000000       6.08000000       7.09000000  T       0.00000000       0.00000000       0.00000000
O        7.27000000       7.67000000       8.17000000  T       0.00000000       0.00000000       0.00000000
O        3.55000000       4.18000000       1.53000000  F       0.00000000       0.00000000       0.00000000
O        1.14000000       4.89000000       1.35000000  F       0.00000000       0.00000000       0.00000000
O        9.29000000       1.31000000       1.44000000  F       0.00000000       0.00000000       0.00000000
O        6.84000000       0.20000000       1.30000000  F       0.00000000       0.00000000       0.00000000
O        3.95000000       9.60000000       1.25000000  F       0.00000000       0.00000000       0.00000000
O        2.28000000       7.42000000       1.08000000  F       0.00000000       0.00000000       0.00000000
O        7.52000000       7.21000000       1.37000000  F       0.00000000       0.00000000       0.00000000
Si       2.10000000       3.98000000      12.32000000  T       0.00000000       0.00000000       0.00000000
Si       2.89000000       3.65000000      15.09000000  T       0.00000000       0.00000000       0.00000000
Si       0.89000000       1.15000000      11.77000000  T       0.00000000       0.00000000       0.00000000
Si       8.27000000       0.95000000      15.61000000  T       0.00000000       0.00000000       0.00000000
Si       5.41000000       1.99000000      14.43000000  T       0.00000000       0.00000000       0.00000000
Si       4.79000000       5.95000000      16.08000000  T       0.00000000       0.00000000       0.00000000
Si       0.00000000       9.16000000      13.87000000  T       0.00000000       0.00000000       0.00000000
Si       6.21000000       5.21000000      13.71000000  T       0.00000000       0.00000000       0.00000000
Si       5.42000000       9.77000000      12.06000000  T       0.00000000       0.00000000       0.00000000
Si       8.39000000       7.04000000      12.74000000  T       0.00000000       0.00000000       0.00000000
Si       3.04000000       4.33000000      20.23000000  T       0.00000000       0.00000000       0.00000000
Si       2.14000000       1.52000000      19.13000000  T       0.00000000       0.00000000       0.00000000
Si       0.48000000       2.70000000      17.01000000  T       0.00000000       0.00000000       0.00000000
Si       4.92000000       1.60000000      17.69000000  T       0.00000000       0.00000000       0.00000000
Si       5.95000000       3.77000000      19.66000000  T       0.00000000       0.00000000       0.00000000
Si       7.63000000       1.18000000      20.66000000  T       0.00000000       0.00000000       0.00000000
Si       2.57000000       8.73000000      20.39000000  T       0.00000000       0.00000000       0.00000000
Si       2.84000000       6.67000000      18.12000000  T       0.00000000       0.00000000       0.00000000
Si       1.08000000       6.16000000      21.43000000  T       0.00000000       0.00000000       0.00000000
Si       0.21000000       5.58000000      18.40000000  T       0.00000000       0.00000000       0.00000000
Si       6.23000000       9.28000000      22.47000000  T       0.00000000       0.00000000       0.00000000
Si       7.13000000       6.24000000      18.16000000  T       0.00000000       0.00000000       0.00000000
Si       7.18000000       9.53000000      18.11000000  T       0.00000000       0.00000000       0.00000000
Si       2.10000000       3.98000000       2.32000000  F       0.00000000       0.00000000       0.00000000
Si       2.91000000       3.65000000       5.03000000  T       0.00000000       0.00000000       0.00000000
Si       0.89000000       1.15000000       1.77000000  F       0.00000000       0.00000000       0.00000000
Si       8.36000000       1.04000000       5.60000000  T       0.00000000       0.00000000       0.00000000
Si       5.41000000       1.99000000       4.43000000  T       0.00000000       0.00000000       0.00000000
Si       4.78000000       5.76000000       6.06000000  T       0.00000000       0.00000000       0.00000000
Si       0.00000000       9.16000000       3.87000000  T       0.00000000       0.00000000       0.00000000
Si       6.21000000       5.21000000       3.71000000  T       0.00000000       0.00000000       0.00000000
Si       5.42000000       9.77000000       2.06000000  F       0.00000000       0.00000000       0.00000000
Si       8.39000000       7.04000000       2.74000000  T       0.00000000       0.00000000       0.00000000
Si       3.72000000       4.29000000       9.89000000  T       0.00000000       0.00000000       0.00000000
Si       2.29000000       1.62000000       9.01000000  T       0.00000000       0.00000000       0.00000000
Si       0.56000000       2.81000000       6.94000000  T       0.00000000       0.00000000       0.00000000
Si       5.03000000       1.19000000       7.45000000  T       0.00000000       0.00000000       0.00000000
Si       6.59000000       3.44000000       9.04000000  T       0.00000000       0.00000000       0.00000000
Si       7.93000000       1.02000000      10.50000000  T       0.00000000       0.00000000       0.00000000
Si       3.50000000       8.23000000      10.42000000  T       0.00000000       0.00000000       0.00000000
Si       3.07000000       6.90000000       8.08000000  T       0.00000000       0.00000000       0.00000000
Si       0.91000000       6.44000000      10.98000000  T       0.00000000       0.00000000       0.00000000
Si       0.20000000       5.79000000       8.10000000  T       0.00000000       0.00000000       0.00000000
Si       5.91000000       7.08000000      11.49000000  T       0.00000000       0.00000000       0.00000000
Si       7.41000000       6.06000000       7.85000000  T       0.00000000       0.00000000       0.00000000
Si       7.31000000       9.32000000       7.93000000  T       0.00000000       0.00000000       0.00000000
Si       7.93000000       1.02000000       0.50000000  F       0.00000000       0.00000000       0.00000000
Si       0.91000000       6.44000000       0.98000000  F       0.00000000       0.00000000       0.00000000
Si       5.91000000       7.08000000       1.49000000  F       0.00000000       0.00000000       0.00000000
C        5.00000000       5.00000000      26.74000000  T       0.00000000       0.00000000     -13.15636429
F        5.79138986       6.03135934      26.74000000  T       0.00000000       0.00000000     -20.81008350
F        5.79138986       3.96864066      26.74000000  T       0.00000000       0.00000000     -20.81008350
153
Lattice="10.0 0.0 0.0 0.0 10.0 0.0 0.0 0.0 43.74" Properties=species:S:1:pos:R:3:move_mask:L:1:momenta:R:3 etch=trj_CF2_30eV_case1 idx=0 index=0 source=trj_CF2_30eV_case1/0000/OUTCAR converged=T time_fs=1.0 pbc="T T T"
O        2.27975746       4.48047042      13.83001903  T      -0.07890900       0.15305199       0.00630820
O        1.48007868       2.43026665      12.56966743  T       0.02550650       0.08661384      -0.10832424
O        3.90982174       2.71981639      14.18016787  T      -0.05800441      -0.05982460       0.05467657
O        3.82008427       4.56024270      16.06021018  T       0.02726240       0.07881114       0.06832912
O        1.64986470       2.88991666      15.79040315  T      -0.04381769      -0.02703327       0.13108826
O        5.09983013       1.64006048      16.04051529  T      -0.05524523       0.01974737       0.16728380
O        5.25965682       0.82013982      13.24998699  T      -0.11174458       0.04558138      -0.00414390
O        6.15998605       3.62982728      14.03009683  T      -0.00453967      -0.05611575       0.03149030
O        7.07010800       1.33014139      14.62023004  T       0.03503839       0.04609640       0.07483322
O        9.06983957       2.28986755      16.26019902  T      -0.05215999      -0.04298282       0.06487500
O        9.53992387       0.41019196      14.71035679  T      -0.02451854       0.06219189       0.11584844
O        0.87014776       9.78969209      12.64008257  T       0.04810191      -0.09998417       0.02670946
O        1.22961575       8.21017053      14.64984035  T      -0.12503356       0.05545245      -0.05190614
O        9.86974318       6.98010000      12.02064844  T      -0.08307484       0.03233953       0.21072947
O        5.15019330       6.18002148      14.53016619  T       0.06296081       0.00697300       0.05411777
O        5.59025306       5.62986755      12.17015567  T       0.08231991      -0.04313282       0.05058877
O        7.78005203       5.79011529      13.63004595  T       0.01683781       0.03750442       0.01495575
O        5.60989942       8.19062085      12.67972785  T      -0.03271354       0.20182587      -0.08853891
O        8.54027576       8.39991345      13.63996861  T       0.08971746      -0.02814752      -0.01020046
O        2.43990504       5.21994130      21.43022963  T      -0.03084215      -0.01917710       0.07467551
O        0.21985272       6.18994907      22.75018280  T      -0.04787528      -0.01659003       0.05939070
O        1.83012663       0.12018590      19.96014311  T       0.04119064       0.06042893       0.04663455
O        2.16035197       2.91083852      19.87051485  T       0.11446525       0.27192893       0.16710708
O        3.43025811       1.25010542      18.20991801  T       0.08371952       0.03429533      -0.02654884
O        0.91993546       1.48026308      18.01007931  T      -0.02105243       0.08560899       0.02584413
O        0.40002707       4.11024672      17.73022642  T       0.00882642       0.07982478       0.07351715
O        9.09001227       1.35002574      21.39012440  T       0.00400058       0.00839359       0.04049348
O        5.41993532       2.96010769      18.38959227  T      -0.02096020       0.03516402      -0.13256229
O        4.60020857       3.96990250      20.62993260  T       0.06785372      -0.03171662      -0.02188400
O        7.10984636       2.68009181      20.21021069  T      -0.04998892       0.02990664       0.06859426
O        6.44977188       0.41017276      21.41011877  T      -0.07401891       0.05634159       0.03858889
O        6.63985126       5.24977734      19.38009691  T      -0.04832485      -0.07229202       0.03144427
O        7.90029648       9.80012221      16.73951806  T       0.09619063       0.03960271      -0.15623187
O        3.86978047       7.03985687      16.86010379  T      -0.07135985      -0.04657090       0.03370274
O        3.70021711       9.42001054      21.43000863  T       0.07062405       0.00339427       0.00272966
O        3.20000532       7.95010574      19.09015318  T       0.00177119       0.03443455       0.04982519
O        1.30940009       6.62002893      17.78969660  T      -0.19450058       0.00952225      -0.09859622
O        3.20998847       5.27981734      18.89003295  T      -0.00376821      -0.05924377       0.01060083
O        0.36003437       5.53015450      19.99064295  T       0.01102413       0.05028227       0.20883995
O        1.54971728       7.68976559      21.02035172  T      -0.09176293      -0.07585746       0.11433229
O        4.75035366       8.47009466      21.90027200  T       0.11503594       0.03071777       0.08857862
O        8.01993316       0.21989837      19.38985609  T      -0.02169689      -0.03305330      -0.04678966
O        6.92012356       8.84989449      23.74021035  T       0.04000622      -0.03427236       0.06806662
O        6.20021268       5.74010371      16.87019192  T       0.06904359       0.03379510       0.06235669
O        5.76995415       0.30987730      18.18006158  T      -0.01492195      -0.03998461       0.02006579
O        8.71981401       5.97015647      17.90997920  T      -0.06048880       0.05093634      -0.00673357
O        6.97999121       7.87023843      18.42988739  T      -0.00287470       0.07745364      -0.03662609
O        2.27949439       4.48064919       3.82977774  T      -0.16442215       0.21107250      -0.07194646
O        1.47999717       2.43001530       2.56950867  T      -0.00087202       0.00503280      -0.15999637
O        3.90995366       2.71991990       4.18004766  T      -0.01507627      -0.02608149       0.01544068
O        3.70956881       4.60927792       6.15969413  T      -0.13968178      -0.23430940      -0.09939433
O        1.71970223       2.92991507       5.80014399  T      -0.09675576      -0.02754748       0.04669737
O        4.82015307       1.32007005       5.88948081  T       0.04983713       0.02271645      -0.16843446
O        5.25982646       0.82007413       3.24983642  T      -0.05646591       0.02419871      -0.05321132
O        6.16003096       3.62996026       4.03008321  T       0.01008553      -0.01294505       0.02707467
O        7.07015540       1.33023761       4.62042699  T       0.05045454       0.07743336       0.13891965
O        8.96063200       2.44990352       6.26032034  T       0.20563788      -0.03149000       0.10424910
O        9.54028348       0.41033841       4.70997515  T       0.09228635       0.11007748      -0.00819546
O        0.87025675       9.79000161       2.63967426  T       0.08350806       0.00039223      -0.10590898
O        1.22948018       8.21025608       4.64971162  T      -0.16916692       0.08327902      -0.09383240
O        9.87000000       6.98000000       2.02000000  F       0.00000000       0.00000000       0.00000000
O        5.15024960       6.17975787       4.53015158  T       0.08125470      -0.07880980       0.04935430
O        5.59000000       5.63000000       2.17000000  F       0.00000000       0.00000000       0.00000000
O        7.78002476       5.79015751       3.62991876  T       0.00796987       0.05120388      -0.02641720
O        5.60996684       8.19030529       2.67957974  T      -0.01079755       0.09930451      -0.13679248
O        8.54015543       8.39979597       3.63977123  T       0.05065680      -0.06626328      -0.07438127
O        3.54965688       4.17994271      11.52990064  T      -0.11156777      -0.01864758      -0.03232286
O        1.14002145       4.88978718      11.35008815  T       0.00691487      -0.06912261       0.02866610
O        1.73982478       0.91985821      10.34037620  T      -0.05685257      -0.04603115       0.12206588
O        2.79003915       3.09040750       9.32004249  T       0.01252299       0.13220553       0.01369731
O        3.57964491       0.96023758       8.14038994  T      -0.11522189       0.07727610       0.12675581
O        1.06983603       1.65979032       7.93008856  T      -0.05341431      -0.06817134       0.02881328
O        0.43003388       4.16989408       7.88994319  T       0.01101045      -0.03432147      -0.01847199
O        9.28964269       1.31003155      11.43960115  T      -0.11607413       0.01024478      -0.12973647
O        5.92026387       2.56010451       7.78017311  T       0.08578656       0.03385119       0.05622843
O        5.26022006       4.03002545       9.71004000  T       0.07130995       0.00837987       0.01315594
O        7.34014512       2.44014926      10.03003442  T       0.04728622       0.04845158       0.01121698
O        6.83922810       0.19971158      11.30039947  T      -0.25058184      -0.09348279       0.12950774
O        7.51989162       4.85974483       8.95991458  T      -0.03527057      -0.08289758      -0.02798983
O        8.09003376       9.73027061       6.59977044  T       0.01080740       0.08795793      -0.07440372
O        4.07039726       7.04982209       6.84962897  T       0.12894927      -0.05778096      -0.12038659
O        3.95020127       9.59989322      11.24980741  T       0.06549974      -0.03472006      -0.06269879
O        3.06000443       8.34989248       8.86987338  T       0.00141335      -0.03500647      -0.04117943
O        1.53993166       6.63977609       7.47005266  T      -0.02221131      -0.07285047       0.01702249
O        3.34998022       5.60986046       9.01030208  T      -0.00652173      -0.04508938       0.09812305
O        0.19980786       6.48990511       9.53027093  T      -0.06258530      -0.03106044       0.08777779
O        2.27959657       7.41960648      11.08025872  T      -0.13084849      -0.12777085       0.08405282
O        4.98964380       7.36020011      10.21003045  T      -0.11574766       0.06501318       0.01016666
O        8.17997640       0.04981149       9.20960171  T      -0.00763937      -0.06124950      -0.12937784
O        7.52003332       7.20997147      11.36976664  T       0.01073695      -0.00929725      -0.07595322
O        6.18011733       5.50004120       6.87999987  T       0.03817244       0.01341063      -0.00008139
O        5.81006585       9.89981983       8.02993298  T       0.02131041      -0.05852976      -0.02186447
O        8.93958431       6.08001576       7.09036288  T      -0.13513298       0.00514059       0.11805002
O        7.26985558       7.67007388       8.17003061  T      -0.04703164       0.02399107       0.00996853
O        3.55000000       4.18000000       1.53000000  F       0.00000000       0.00000000       0.00000000
O        1.14000000       4.89000000       1.35000000  F       0.00000000       0.00000000       0.00000000
O        9.29000000       1.31000000       1.44000000  F       0.00000000       0.00000000       0.00000000
O        6.84000000       0.20000000       1.30000000  F       0.00000000       0.00000000       0.00000000
O        3.95000000       9.60000000       1.25000000  F       0.00000000       0.00000000       0.00000000
O        2.28000000       7.42000000       1.08000000  F       0.00000000       0.00000000       0.00000000
O        7.52000000       7.21000000       1.37000000  F       0.00000000       0.00000000       0.00000000
Si       2.10012594       3.97985771      12.31998614  T       0.07188103      -0.08119398      -0.00785508
Si       2.89012076       3.64988650      15.08983904  T       0.06891127      -0.06476515      -0.09194218
Si       0.88991527       1.15002833      11.76973098  T      -0.04848596       0.01609357      -0.15353502
Si       8.27019741       0.95022486      15.60995887  T       0.11273993       0.12845435      -0.02341612
Si       5.41030131       1.99017940      14.42996413  T       0.17216546       0.10250807      -0.02036111
Si       4.78981536       5.94973048      16.08005722  T      -0.10533336      -0.15402281       0.03274086
Si       0.00014059       9.15982665      13.87000792  T       0.08016358      -0.09878821       0.00469487
Si       6.20988440       5.20997757      13.70960028  T      -0.06596372      -0.01293045      -0.22826722
Si       5.42007685       9.76988469      12.06023996  T       0.04370036      -0.06575889       0.13717843
Si       8.39005982       7.03997336      12.73986428  T       0.03409583      -0.01521957      -0.07749948
Si       3.04013273       4.32984512      20.22984970  T       0.07591312      -0.08838966      -0.08565433
Si       2.13976677       1.51952410      19.12972933  T      -0.13305047      -0.27101356      -0.15436066
Si       0.48005580       2.69979596      17.00961138  T       0.03177226      -0.11622161      -0.22192874
Si       4.92000127       1.59987070      17.68968117  T       0.00089755      -0.07381046      -0.18201409
Si       5.95007474       3.76999697      19.66020376  T       0.04258384      -0.00193433       0.11617630
Si       7.63028010       1.18026922      20.65960343  T       0.15981890       0.15364660      -0.22639206
Si       2.57006828       8.73011726      20.38974113  T       0.03885191       0.06683118      -0.14756570
Si       2.84052021       6.67025301      18.12007134  T       0.29644674       0.14434092       0.04071176
Si       1.08002476       6.15996781      21.42957612  T       0.01413249      -0.01853499      -0.24209684
Si       0.20983033       5.57988353      18.39984999  T      -0.09696211      -0.06645883      -0.08534692
Si       6.22946955       9.27973140      22.46990074  T      -0.30286494      -0.15341910      -0.05647664
Si       7.13000040       6.24007003      18.15989923  T       0.00013781       0.03998656      -0.05743163
Si       7.17991931       9.52975244      18.11044299  T      -0.04587265      -0.14127839       0.25245732
Si       2.10000000       3.98000000       2.32000000  F       0.00000000       0.00000000       0.00000000
Si       2.91028104       3.64999021       5.03019692  T       0.16007704      -0.00556682       0.11213325
Si       0.89000000       1.15000000       1.77000000  F       0.00000000       0.00000000       0.00000000
Si       8.35978203       1.04009572       5.59997410  T      -0.12427237       0.05474802      -0.01475221
Si       5.41024589       1.98993958       4.43006140  T       0.14053859      -0.03448700       0.03493953
Si       4.78013554       5.76050423       6.06025742  T       0.07708544       0.28743362       0.14703320
Si       0.00024364       9.15967714       3.87031028  T       0.13920921      -0.18419615       0.17723048
Si       6.20990350       5.20989499       3.70980414  T      -0.05505923      -0.06005050      -0.11193829
Si       5.42000000       9.77000000       2.06000000  F       0.00000000       0.00000000       0.00000000
Si       8.39010422       7.04000796       2.74011846  T       0.05955650       0.00448232       0.06755574
Si       3.71991098       4.28992156       9.89012248  T      -0.05063743      -0.04480245       0.07002836
Si       2.29020872       1.61984411       9.00967935  T       0.11901327      -0.08883457      -0.18286603
Si       0.55964023       2.81013112       6.93998445  T      -0.20552255       0.07471611      -0.00882690
Si       5.02995090       1.19013025       7.45015746  T      -0.02806415       0.07441283       0.08972226
Si       6.58982899       3.44008048       9.03995335  T      -0.09752711       0.04598120      -0.02656143
Si       7.93031990       1.01994564      10.49996059  T       0.18216577      -0.03133378      -0.02241351
Si       3.50029845       8.23007589      10.41999903  T       0.17021623       0.04316142      -0.00044041
Si       3.06953701       6.90008604       8.07984421  T      -0.26428626       0.04895902      -0.08908136
Si       0.91021800       6.44011271      10.97998862  T       0.12419638       0.06427813      -0.00614009
Si       0.20039342       5.79004009       8.09940105  T       0.22471841       0.02295016      -0.34185518
Si       5.90999775       7.07981057      11.49035366  T      -0.00136852      -0.10806326       0.20191489
Si       7.41013713       6.06014005       7.84966212  T       0.07830250       0.07988783      -0.19282135
Si       7.31019789       9.31989111       7.93049734  T       0.11319646      -0.06214255       0.28384084
Si       7.93000000       1.02000000       0.50000000  F       0.00000000       0.00000000       0.00000000
Si       0.91000000       6.44000000       0.98000000  F       0.00000000       0.00000000       0.00000000
Si       5.91000000       7.08000000       1.49000000  F       0.00000000       0.00000000       0.00000000
C        4.99934133       5.00011596      26.63239666  T      -0.15993703       0.02852403     -13.15866870
F        5.79157370       6.03161579      26.63240435  T       0.07047358       0.09855308     -20.81076105
F        5.79162524       3.96831907      26.63240605  T       0.09055310      -0.12391336     -20.81014616
153
Lattice="10.0 0.0 0.0 0.0 10.0 0.0 0.0 0.0 43.74" Properties=species:S:1:pos:R:3:move_mask:L:1:momenta:R:3 etch=trj_CF2_30eV_case1 idx=0 index=0 source=trj_CF2_30eV_case1/0000/OUTCAR converged=T time_fs=2.0 pbc="T T T"
O        2.27903308       4.48187548      13.83007964  T      -0.15676839       0.30408867       0.01375088
O        1.48031066       2.43105846      12.56867010  T       0.04969155       0.17058124      -0.21652621
O        3.90928908       2.71926516      14.18067119  T      -0.11531976      -0.11977489       0.10925260
O        3.82033088       4.56096263      16.06083619  T       0.05250684       0.15496567       0.13518179
O        1.64946722       2.88967044      15.79160473  T      -0.08489265      -0.05282766       0.25961086
O        5.09932350       1.64024340      16.04204232  T      -0.10951754       0.03997028       0.32843465
O        5.25862884       0.82056039      13.24995102  T      -0.22298541       0.09152121      -0.00729726
O        6.15994434       3.62931397      14.03038560  T      -0.00903504      -0.11065814       0.06241848
O        7.07042729       1.33056682      14.62091677  T       0.06854255       0.09260556       0.14856379
O        9.06936155       2.28947553      16.26079744  T      -0.10326418      -0.08423447       0.13018011
O        9.53970466       0.41075674      14.71141480  T      -0.04605712       0.12078714       0.22768325
O        0.87059000       9.78877878      12.64032414  T       0.09586634      -0.19659072       0.05142837
O        1.22846757       8.21067889      14.64936468  T      -0.24857111       0.10985033      -0.10274724
O        9.86899185       6.98039234      12.02257732  T      -0.15994129       0.06220498       0.41612830
O        5.15077297       6.18008508      14.53066403  T       0.12585372       0.01366374       0.10798234
O        5.59100843       5.62947068      12.17061867  T       0.16339519      -0.08610042       0.09986695
O        7.78020450       5.79045949      13.63018334  T       0.03250242       0.07447414       0.02975480
O        5.60959935       8.19246965      12.67891517  T      -0.06488339       0.39917340      -0.17584825
O        8.54109933       8.39965528      13.63987525  T       0.17822303      -0.05582100      -0.02014166
O        2.43962299       5.21976349      21.43091438  T      -0.06079269      -0.03889073       0.14802498
O        0.21941407       6.18979633      22.75072629  T      -0.09474058      -0.03315937       0.11723267
O        1.83050458       0.12073932      19.96057301  T       0.08175464       0.11945527       0.09346326
O        2.16140159       2.91331425      19.87203961  T       0.22687605       0.53096854       0.32781452
O        3.43102068       1.25042021      18.20967727  T       0.16362662       0.06811724      -0.05139979
O        0.91974092       1.48104938      18.01031752  T      -0.04240130       0.17026978       0.05178177
O        0.40010856       4.11096911      17.73089786  T       0.01774391       0.15389441       0.14450321
O        9.09004932       1.35010326      21.39049660  T       0.00810174       0.01688936       0.08066166
O        5.41974482       2.96043346      18.38837749  T      -0.04077838       0.07119778      -0.26240075
O        4.60083129       3.96961147      20.62973274  T       0.13471956      -0.06295457      -0.04301211
O        7.10938752       2.68036715      20.21084143  T      -0.09928109       0.05977430       0.13674852
O        6.44909704       0.41069322      21.41047162  T      -0.14495898       0.11340395       0.07602745
O        6.63940925       5.24911721      19.38038358  T      -0.09527900      -0.14203928       0.06157173
O        7.90117324       9.80048208      16.73809704  T       0.18828120       0.07701823      -0.30444935
O        3.86912690       7.03942926      16.86041159  T      -0.14108583      -0.09256371       0.06623240
O        3.70086534       9.42004075      21.43003201  T       0.14027855       0.00630458       0.00467619
O        3.20002249       7.95042259      19.09061037  T       0.00392944       0.06874382       0.09889744
O        1.30763038       6.62011891      17.78879416  T      -0.37929835       0.02007695      -0.19467770
O        3.20995349       5.27927781      18.89012747  T      -0.00766277      -0.11574337       0.01979767
O        0.36013188       5.53061646      19.99255227  T       0.02022979       0.10005958       0.41137609
O        1.54887999       7.68907860      21.02139908  T      -0.18001152      -0.14648024       0.22615655
O        4.75140854       8.47037519      21.90108623  T       0.22798338       0.06040328       0.17639804
O        8.01973526       0.21959529      19.38942737  T      -0.04251866      -0.06550234      -0.09258523
O        6.92048618       8.84958135      23.74082672  T       0.07738172      -0.06741277       0.13141343
O        6.20084294       5.74041516      16.87076236  T       0.13556296       0.06768592       0.12298017
O        5.76981710       0.30950873      18.18024651  T      -0.02967183      -0.08012215       0.04019575
O        8.71925930       5.97062470      17.90991821  T      -0.11990944       0.10148178      -0.01300128
O        6.97996448       7.87094667      18.42955136  T      -0.00586702       0.15261587      -0.07268118
O        2.27798678       4.48258358       3.82912576  T      -0.32585709       0.41787746      -0.13911599
O        1.47999031       2.43006282       2.56803657  T      -0.00121243       0.01059557      -0.31937418
O        3.90981527       2.71967998       4.18018790  T      -0.02994874      -0.05204067       0.03000048
O        3.70830064       4.60714141       6.15878454  T      -0.27114425      -0.45898610      -0.19617124
O        1.71881690       2.92966419       5.80056919  T      -0.19092209      -0.05382052       0.09120251
O        4.82061141       1.32027687       5.88794587  T       0.09938927       0.04435530      -0.32953626
O        5.25930802       0.82029814       3.24934818  T      -0.11221686       0.04891991      -0.10560548
O        6.16012384       3.62984103       4.03033183  T       0.02016933      -0.02589777       0.05382592
O        7.07061610       1.33095142       4.62170225  T       0.09911655       0.15518025       0.27598246
O        8.96252013       2.44961205       6.26127795  T       0.40870514      -0.06364748       0.20738452
O        9.54113198       0.41134835       4.70989733  T       0.18394008       0.21843498      -0.01744882
O        0.87102276       9.79000214       2.63870367  T       0.16563720      -0.00060880      -0.20966274
O        1.22792623       8.21101969       4.64885010  T      -0.33653046       0.16503988      -0.18647398
O        9.87000000       6.98000000       2.02000000  F       0.00000000       0.00000000       0.00000000
O        5.15099664       6.17903362       4.53060557  T       0.16193987      -0.15692333       0.09847024
O        5.59000000       5.63000000       2.17000000  F       0.00000000       0.00000000       0.00000000
O        7.78009592       5.79062657       3.62967660  T       0.01492794       0.10127955      -0.05232555
O        5.60986754       8.19121641       2.67832258  T      -0.02153206       0.19706596      -0.27239779
O        8.54062253       8.39919044       3.63908958  T       0.10157720      -0.13039481      -0.14724372
O        3.54863427       4.17977130      11.52960397  T      -0.22093207      -0.03714936      -0.06419454
O        1.14008345       4.88915539      11.35035098  T       0.01307109      -0.13608463       0.05680281
O        1.73930648       0.91943797      10.34148900  T      -0.11132356      -0.09040207       0.23900065
O        2.79014906       3.09161242       9.32016529  T       0.02259848       0.25871920       0.02588675
O        3.57859437       0.96094649       8.14155093  T      -0.22565230       0.15330274       0.25063750
O        1.06934415       1.65916560       7.93035311  T      -0.10681078      -0.13494507       0.05726664
O        0.43013469       4.16958230       7.88977391  T       0.02175706      -0.06669793      -0.03656572
O        9.28858127       1.31012513      11.43841083  T      -0.22873374       0.02014497      -0.25744926
O        5.92104988       2.56041174       7.78068710  T       0.16974798       0.06566241       0.11072082
O        5.26086797       4.03010470       9.71016408  T       0.13864101       0.01769830       0.02762955
O        7.34058091       2.44059146      10.03013781  T       0.09471624       0.09509172       0.02247187
O        6.83694073       0.19886166      11.30157761  T      -0.49197838      -0.18200397       0.25244809
O        7.51956760       4.85898670       8.95965297  T      -0.07018127      -0.16339752      -0.05771539
O        8.09012886       9.73107608       6.59909403  T       0.01961478       0.17385268      -0.14483266
O        4.07157401       7.04929412       6.84853149  T       0.25301769      -0.11367038      -0.23570892
O        3.95080297       9.59957500      11.24923089  T       0.13031751      -0.06874702      -0.12499028
O        3.06001677       8.34957053       8.86949572  T       0.00252051      -0.06981332      -0.08164557
O        1.53972833       6.63910727       7.47020629  T      -0.04386675      -0.14475455       0.03262025
O        3.34991835       5.60945377       9.01119915  T      -0.01385739      -0.08631609       0.19327248
O        0.19923160       6.48961558       9.53106809  T      -0.12511938      -0.06369426       0.17049334
O        2.27840489       7.41843964      11.08102747  T      -0.25566585      -0.25109156       0.16570203
O        4.98858453       7.36079474      10.21012988  T      -0.22846861       0.12816975       0.02295700
O        8.17990719       0.04925113       9.20841882  T      -0.01475774      -0.12081918      -0.25486900
O        7.52012946       7.20988574      11.36906865  T       0.02023318      -0.01864561      -0.15123200
O        6.18046770       5.50016446       6.87999818  T       0.07581007       0.02671208      -0.00059069
O        5.81025883       9.89928458       8.02973084  T       0.04114216      -0.11535635      -0.04408278
O        8.93834647       6.08006327       7.09144627  T      -0.26724832       0.01035957       0.23439183
O        7.26942280       7.67029305       8.17012233  T      -0.09390385       0.04718142       0.01989989
O        3.55000000       4.18000000       1.53000000  F       0.00000000       0.00000000       0.00000000
O        1.14000000       4.89000000       1.35000000  F       0.00000000       0.00000000       0.00000000
O        9.29000000       1.31000000       1.44000000  F       0.00000000       0.00000000       0.00000000
O        6.84000000       0.20000000       1.30000000  F       0.00000000       0.00000000       0.00000000
O        3.95000000       9.60000000       1.25000000  F       0.00000000       0.00000000       0.00000000
O        2.28000000       7.42000000       1.08000000  F       0.00000000       0.00000000       0.00000000
O        7.52000000       7.21000000       1.37000000  F       0.00000000       0.00000000       0.00000000
Si       2.10050125       3.97943405      12.31994593  T       0.14233524      -0.16056345      -0.01491178
Si       2.89048036       3.64954861      15.08935809  T       0.13629723      -0.12803104      -0.18276310
Si       0.88966042       1.15011136      11.76892956  T      -0.09735287       0.03108349      -0.30384423
Si       8.27078689       0.95089704      15.60983744  T       0.22390374       0.25554203      -0.04570380
Si       5.41120271       1.99071610      14.42985934  T       0.34288745       0.20415399      -0.03910764
Si       4.78926614       5.94892377      16.08022933  T      -0.20797423      -0.30698828       0.06575952
Si       0.00055801       9.15931296      13.87003472  T       0.15783146      -0.19394605       0.01109984
Si       6.20954024       5.20990838      13.70840689  T      -0.13041452      -0.02693482      -0.45322409
Si       5.42030280       9.76954213      12.06095909  T       0.08476527      -0.12958092       0.27392531
Si       8.39023716       7.03989368      12.73945923  T       0.06696699      -0.03031030      -0.15377940
Si       3.04053122       4.32938378      20.22940424  T       0.15202174      -0.17489057      -0.16821254
Si       2.13907303       1.51811724      19.12892506  T      -0.26270468      -0.53019973      -0.30434067
Si       0.48022068       2.69919228      17.00845108  T       0.06211251      -0.22765655      -0.44068948
Si       4.92000827       1.59948515      17.68873041  T       0.00361241      -0.14629363      -0.36074102
Si       5.95029608       3.76998421      19.66080867  T       0.08353199      -0.00592758       0.22871789
Si       7.63111367       1.18107124      20.65842078  T       0.31575462       0.30408517      -0.44877928
Si       2.57026954       8.73046490      20.38897317  T       0.07566560       0.13130141      -0.29020628
Si       2.84206175       6.67100572      18.12028384  T       0.58205151       0.28507816       0.08056702
Si       1.08009878       6.15986885      21.42830965  T       0.02819974      -0.03843729      -0.48134248
Si       0.20932247       5.57953683      18.39940796  T      -0.19326843      -0.13135554      -0.16616808
Si       6.22788706       9.27892865      22.46960873  T      -0.60062066      -0.30517497      -0.10949908
Si       7.12999990       6.24027902      18.15960056  T      -0.00069823       0.07934636      -0.11276541
Si       7.17968219       9.52901506      18.11175593  T      -0.08894782      -0.27954110       0.49578776
Si       2.10000000       3.98000000       2.32000000  F       0.00000000       0.00000000       0.00000000
Si       2.91111242       3.64996137       5.03077890  T       0.31346846      -0.01085602       0.21927316
Si       0.89000000       1.15000000       1.77000000  F       0.00000000       0.00000000       0.00000000
Si       8.35913506       1.04038308       5.59989748  T      -0.24457828       0.10960310      -0.02889008
Si       5.41098226       1.98975953       4.43024244  T       0.28034054      -0.06827703       0.06808477
Si       4.78053437       5.76200012       6.06102649  T       0.14976641       0.56530630       0.29222547
Si       0.00097241       9.15871651       3.87123742  T       0.27717156      -0.36385572       0.35235434
Si       6.20961628       5.20957991       3.70921770  T      -0.10882650      -0.12013114      -0.22322827
Si       5.42000000       9.77000000       2.06000000  F       0.00000000       0.00000000       0.00000000
Si       8.39041614       7.04003057       2.74047039  T       0.11869473       0.00824815       0.13313778
Si       3.71964890       4.28968721       9.89048971  T      -0.09844059      -0.08905811       0.13992963
Si       2.29082853       1.61938217       9.00872660  T       0.23439638      -0.17440931      -0.36048168
Si       0.55856477       2.81051960       6.93993903  T      -0.40884748       0.14665969      -0.01694828
Si       5.02980389       1.19051968       7.45062394  T      -0.05594928       0.14805748       0.17610263
Si       6.58932089       3.44032119       9.03981551  T      -0.19223410       0.09155035      -0.05192678
Si       7.93126542       1.01977799      10.49984460  T       0.35627254      -0.06524333      -0.04357144
Si       3.50118548       8.23029923      10.41999824  T       0.33570698       0.08387554       0.00032322
Si       3.06815675       6.90033967       8.07937699  T      -0.52361243       0.09536731      -0.17805377
Si       0.91086334       6.44044757      10.97996131  T       0.24345001       0.12667163      -0.00839850
Si       0.20156891       5.79016081       8.09761627  T       0.44669965       0.04614827      -0.67682699
Si       5.90998950       7.07924713      11.49140868  T      -0.00358584      -0.21336043       0.40044260
Si       7.41054636       6.06055653       7.84865574  T       0.15535294       0.15769056      -0.38151403
Si       7.31079215       9.31956673       7.93197899  T       0.22670364      -0.12299274       0.56177322
Si       7.93000000       1.02000000       0.50000000  F       0.00000000       0.00000000       0.00000000
Si       0.91000000       6.44000000       0.98000000  F       0.00000000       0.00000000       0.00000000
Si       5.91000000       7.08000000       1.49000000  F       0.00000000       0.00000000       0.00000000
C        4.99741116       5.00046674      26.52477524  T      -0.30929300       0.05712210     -13.16074639
F        5.79210998       6.03236940      26.52480577  T       0.13563286       0.19153237     -20.81116984
F        5.79231785       3.96736812      26.52481151  T       0.17593416      -0.24239875     -20.81031958
153
Lattice="10.0 0.0 0.0 0.0 10.0 0.0 0.0 0.0 43.74" Properties=species:S:1:pos:R:3:move_mask:L:1:momenta:R:3 etch=trj_CF2_30eV_case1 idx=0 index=0 source=trj_CF2_30eV_case1/0000/OUTCAR converged=T time_fs=3.0 pbc="T T T"
O        2.27783646       4.48419669      13.83019204  T      -0.23255734       0.45112792       0.02335727
O        1.48068386       2.43235123      12.56700918  T       0.07127961       0.24933968      -0.32446258
O        3.90840835       2.71834519      14.18150896  T      -0.17126083      -0.17996948       0.16359677
O        3.82072136       4.56213542      16.06186451  T       0.07377051       0.22584973       0.19912717
O        1.64883271       2.88927264      15.79358113  T      -0.12054438      -0.07619369       0.38301995
O        5.09848904       1.64055307      16.04452487  T      -0.16186601       0.06112084       0.47744655
O        5.25692070       0.82126491      13.24990105  T      -0.33321363       0.13813181      -0.00854293
O        6.15987528       3.62847446      14.03086111  T      -0.01344186      -0.16209256       0.09222059
O        7.07094388       1.33128004      14.62205009  T       0.09904735       0.13991362       0.22011845
O        9.06857555       2.28883977      16.26179910  T      -0.15230127      -0.12208097       0.19630498
O        9.53936953       0.41166172      14.71313748  T      -0.06176992       0.17241822       0.33168366
O        0.87132361       9.78729079      12.64070662  T       0.14294717      -0.28661075       0.07227614
O        1.22656927       8.21151533      14.64858279  T      -0.36910711       0.16212913      -0.15146149
O        9.86780248       6.98085463      12.02573818  T      -0.22471943       0.08729221       0.61114865
O        5.15173844       6.18018815      14.53149108  T       0.18862389       0.01977579       0.16130203
O        5.59225463       5.62881096      12.17137686  T       0.24197773      -0.12872803       0.14649016
O        7.78044671       5.79102776      13.63041067  T       0.04586731       0.11040037       0.04421753
O        5.60910479       8.19550517      12.67757335  T      -0.09596655       0.58756182      -0.26067388
O        8.54245956       8.39922979      13.63972223  T       0.26431709      -0.08257495      -0.02959161
O        2.43916209       5.21946179      21.43204287  T      -0.08889284      -0.05962985       0.21909812
O        0.21869308       6.18954195      22.75161665  T      -0.13968274      -0.04970128       0.17211894
O        1.83112814       0.12164737      19.96129155  T       0.12108537       0.17570470       0.14070125
O        2.16312988       2.91731057      19.87451649  T       0.33514792       0.76516948       0.47623744
O        3.43225295       1.25094004      18.20929323  T       0.23607068       0.10100512      -0.07293690
O        0.91941365       1.48235025      18.01071546  T      -0.06435379       0.25306156       0.07788237
O        0.40024528       4.11211496      17.73199137  T       0.02683219       0.21681233       0.21058703
O        9.09011217       1.35023351      21.39111360  T       0.01242133       0.02558334       0.12017340
O        5.41943887       2.96098510      18.38638042  T      -0.05837684       0.10887448      -0.38693073
O        4.60185899       3.96913130      20.62940730  T       0.19959502      -0.09324456      -0.06265482
O        7.10863004       2.68082558      20.21188816  T      -0.14713454       0.08953414       0.20402356
O        6.44800332       0.41156786      21.41104798  T      -0.20996247       0.17180978       0.11121188
O        6.63868647       5.24804278      19.38084798  T      -0.13954842      -0.20681185       0.08911316
O        7.90259326       9.80105984      16.73580930  T       0.27249842       0.11022810      -0.43727704
O        3.86805428       7.03872246      16.86091256  T      -0.20757117      -0.13741485       0.09641099
O        3.70193623       9.42008598      21.43006334  T       0.20817307       0.00818572       0.00521401
O        3.20005506       7.95094937      19.09136468  T       0.00686383       0.10279532       0.14647155
O        1.30477839       6.62027925      17.78731553  T      -0.54552105       0.03260249      -0.28586906
O        3.20989391       5.27840642      18.89027080  T      -0.01179975      -0.16687793       0.02626443
O        0.36027583       5.53138116      19.99567059  T       0.02581780       0.14879381       0.60157440
O        1.54752002       7.68798649      21.02311936  T      -0.26142809      -0.20693394       0.33310641
O        4.75314452       8.47083291      21.90243413  T       0.33646080       0.08826792       0.26222426
O        8.01941447       0.21909647      19.38872310  T      -0.06156458      -0.09669404      -0.13636237
O        6.92106381       8.84907106      23.74180660  T       0.10959911      -0.09827639       0.18570820
O        6.20186772       5.74093515      16.87169540  T       0.19711099       0.10173689       0.18016520
O        5.76959046       0.30889292      18.18055536  T      -0.04407874      -0.12054380       0.06043853
O        8.71834577       5.97140107      17.90982131  T      -0.17717374       0.15123657      -0.01835231
O        6.97991871       7.87210368      18.42899702  T      -0.00909928       0.22322662      -0.10764330
O        2.27550430       4.48576439       3.82808714  T      -0.48149200       0.61637733      -0.19713330
O        1.47998430       2.43014743       2.56558942  T      -0.00049973       0.01721732      -0.47750585
O        3.90958669       2.71928136       4.18041273  T      -0.04441880      -0.07775445       0.04284044
O        3.70626995       4.60367793       6.15729552  T      -0.38672171      -0.66496015      -0.28762709
O        1.71736758       2.92925897       5.80125569  T      -0.28003701      -0.07760997       0.13145165
O        4.82137234       1.32061063       5.88546185  T       0.14834344       0.06388070      -0.47635871
O        5.25845126       0.82067679       3.24854277  T      -0.16654690       0.07466265      -0.15638451
O        6.16027862       3.62964222       4.03074291  T       0.03025089      -0.03887255       0.07993345
O        7.07136564       1.33214429       4.62380873  T       0.14422204       0.23354954       0.40935210
O        8.96564062       2.44911944       6.26286254  T       0.60659422      -0.09713376       0.30827624
O        9.54253963       0.41301414       4.70975697  T       0.27430178       0.32342792      -0.02873915
O        0.87228547       9.78998892       2.63710787  T       0.24507925      -0.00432130      -0.30920783
O        1.22535495       8.21227668       4.64742656  T      -0.50019788       0.24369670      -0.27667051
O        9.87000000       6.98000000       2.02000000  F       0.00000000       0.00000000       0.00000000
O        5.15223590       6.17783363       4.53135983  T       0.24148740      -0.23366041       0.14712937
O        5.59000000       5.63000000       2.17000000  F       0.00000000       0.00000000       0.00000000
O        7.78020425       5.79139686       3.62927817  T       0.01990384       0.14912667      -0.07723163
O        5.60970269       8.19271917       2.67623948  T      -0.03213660       0.29174423      -0.40563003
O        8.54140371       8.39820294       3.63796898  T       0.15301783      -0.19030314      -0.21709425
O        3.54695242       4.17948712      11.52911411  T      -0.32592054      -0.05535655      -0.09517106
O        1.14017910       4.88812432      11.35078364  T       0.01774883      -0.19881305       0.08389723
O        1.73846679       0.91875429      10.34329164  T      -0.16113090      -0.13158089       0.34590466
O        2.79030751       3.09356307       9.32035469  T       0.02792647       0.37417178       0.03513018
O        3.57689232       0.96211517       8.14345660  T      -0.32659012       0.22680845       0.36881295
O        1.06852459       1.65813858       7.93079040  T      -0.16014880      -0.19897839       0.08502368
O        0.43030005       4.16908246       7.88949561  T       0.03199211      -0.09523742      -0.05391850
O        9.28684705       1.31027763      11.43644763  T      -0.33461823       0.02938069      -0.38113212
O        5.92234133       2.56090312       7.78152611  T       0.25011826       0.09348386       0.16180202
O        5.26190757       4.03024627       9.71038422  T       0.19823304       0.02883857       0.04467626
O        7.34130864       2.44131012      10.03031045  T       0.14240099       0.13820309       0.03377297
O        6.83322141       0.19749514      11.30347482  T      -0.71549445      -0.26095575       0.36265125
O        7.51903123       4.85774745       8.95919941  T      -0.10437571      -0.23921177      -0.09081037
O        8.09026720       9.73239763       6.59800686  T       0.02457074       0.25571813      -0.20754515
O        4.07348563       7.04843371       6.84675375  T       0.36747381      -0.16569686      -0.34110138
O        3.95179886       9.59905172      11.24827420  T       0.19378630      -0.10139027      -0.18646887
O        3.06003422       8.34903598       8.86887355  T       0.00302320      -0.10422946      -0.12070569
O        1.53939516       6.63800230       7.47044770  T      -0.06439915      -0.21474496       0.04534424
O        3.34980700       5.60881500       9.01266415  T      -0.02278334      -0.12004448       0.28262630
O        0.19827182       6.48911720       9.53234564  T      -0.18748738      -0.09934146       0.24343437
O        2.27647985       7.41654002      11.08228448  T      -0.36870709      -0.36571102       0.24271178
O        4.98684985       7.36176685      10.21032213  T      -0.33523075       0.18764023       0.04083713
O        8.17979728       0.04833433       9.20648691  T      -0.02078278      -0.17705977      -0.37266808
O        7.52027711       7.20974232      11.36791224  T       0.02730877      -0.02810054      -0.22515741
O        6.18104617       5.50036880       6.87999100  T       0.11238206       0.03980431      -0.00194114
O        5.81056554       9.89840976       8.02939037  T       0.05811714      -0.16885183      -0.06698536
O        8.93631439       6.08014326       7.09323447  T      -0.39328398       0.01573386       0.34732435
O        7.26870314       7.67065018       8.17027483  T      -0.14045432       0.06878393       0.02975944
O        3.55000000       4.18000000       1.53000000  F       0.00000000       0.00000000       0.00000000
O        1.14000000       4.89000000       1.35000000  F       0.00000000       0.00000000       0.00000000
O        9.29000000       1.31000000       1.44000000  F       0.00000000       0.00000000       0.00000000
O        6.84000000       0.20000000       1.30000000  F       0.00000000       0.00000000       0.00000000
O        3.95000000       9.60000000       1.25000000  F       0.00000000       0.00000000       0.00000000
O        2.28000000       7.42000000       1.08000000  F       0.00000000       0.00000000       0.00000000
O        7.52000000       7.21000000       1.37000000  F       0.00000000       0.00000000       0.00000000
Si       2.10111845       3.97873854      12.31988361  T       0.20993841      -0.23630932      -0.02033758
Si       2.89107085       3.64899417      15.08856307  T       0.20066630      -0.18832316      -0.27133898
Si       0.88923348       1.15024341      11.76761255  T      -0.14696361       0.04393689      -0.44780061
Si       8.27176018       0.95200938      15.60964165  T       0.33192504       0.37989896      -0.06573101
Si       5.41269667       1.99160559      14.42969402  T       0.51074835       0.30409295      -0.05471247
Si       4.78836640       5.94758547      16.08051783  T      -0.30529876      -0.45779171       0.09934394
Si       0.00123927       9.15847777      13.87008914  T       0.23061035      -0.28200782       0.02076035
Si       6.20897543       5.20978684      13.70643728  T      -0.19186988      -0.04305852      -0.67150787
Si       5.42066403       9.76898257      12.06215514  T       0.12056429      -0.18946428       0.40982558
Si       8.39052557       7.03976163      12.73879126  T       0.09737810      -0.04514095      -0.22762073
Si       3.04119665       4.32862595      20.22867974  T       0.22861663      -0.25755242      -0.24466479
Si       2.13793653       1.51584023      19.12760958  T      -0.38562048      -0.76670589      -0.44602600
Si       0.48048716       2.69821367      17.00653564  T       0.08961157      -0.32982400      -0.65316772
Si       4.92003041       1.59885023      17.68716506  T       0.00986146      -0.21617350      -0.53282185
Si       5.95065555       3.76995118      19.66179584  T       0.12129269      -0.01386662       0.33413365
Si       7.63248039       1.18238941      20.65647277  T       0.46401557       0.44824384      -0.66336383
Si       2.57059322       8.73103071      20.38772168  T       0.10851747       0.19120119      -0.42321806
Si       2.84456874       6.67223936      18.12063317  T       0.84675514       0.41872307       0.11884515
Si       1.08022207       6.15969604      21.42621526  T       0.04230405      -0.06099051      -0.71497452
Si       0.20847983       5.57896812      18.39869717  T      -0.28827972      -0.19312342      -0.23829775
Si       6.22527944       9.27760016      22.46914261  T      -0.88812106      -0.45376502      -0.15538994
Si       7.12999341       6.24062374      18.15911500  T      -0.00345865       0.11750208      -0.16392969
Si       7.17930293       9.52780349      18.11389167  T      -0.12673454      -0.41191756       0.72145542
Si       2.10000000       3.98000000       2.32000000  F       0.00000000       0.00000000       0.00000000
Si       2.91245939       3.64991468       5.03172002  T       0.45374637      -0.01579129       0.31662838
Si       0.89000000       1.15000000       1.77000000  F       0.00000000       0.00000000       0.00000000
Si       8.35807983       1.04086258       5.59977337  T      -0.35700028       0.16462154      -0.04179072
Si       5.41220525       1.98946351       4.43053377  T       0.41866484      -0.10066671       0.09768470
Si       4.78117413       5.76443815       6.06229739  T       0.21423127       0.82456524       0.43362361
Si       0.00217959       9.15714183       3.87277035  T       0.41250964      -0.53450582       0.52323536
Si       6.20914505       5.20905462       3.70824409  T      -0.16005211      -0.18026400      -0.33321247
Si       5.42000000       9.77000000       2.06000000  F       0.00000000       0.00000000       0.00000000
Si       8.39093357       7.04006410       2.74104549  T       0.17699752       0.01059293       0.19481687
Si       3.71922839       4.28929981       9.89110097  T      -0.14076643      -0.13220503       0.20953461
Si       2.29184036       1.61863115       9.00716905  T       0.34249585      -0.25355984      -0.52780814
Si       0.55678522       2.81115105       6.93986742  T      -0.60772119       0.21316967      -0.02367707
Si       5.02955999       1.19116422       7.45138222  T      -0.08341276       0.22015248       0.25602935
Si       6.58849040       3.44071996       9.03959273  T      -0.28137711       0.13628769      -0.07491572
Si       7.93279483       1.01948394      10.49965829  T       0.51469264      -0.10399581      -0.06248342
Si       3.50263662       8.23065744      10.42000378  T       0.49198376       0.11988851       0.00335325
Si       3.06588506       6.90074771       8.07859909  T      -0.77315510       0.13682879      -0.26668649
Si       0.91191035       6.44099459      10.97993800  T       0.35303619       0.18523325      -0.00324795
Si       0.20351200       5.79036329       8.09468142  T       0.66311960       0.06969351      -0.99830956
Si       5.90997088       7.07832411      11.49314748  T      -0.00742695      -0.31318307       0.59232938
Si       7.41122102       6.06123863       7.84700235  T       0.22983252       0.23142537      -0.56206233
Si       7.31178416       9.31903353       7.93441420  T       0.34063033      -0.18133532       0.82807717
Si       7.93000000       1.02000000       0.50000000  F       0.00000000       0.00000000       0.00000000
Si       0.91000000       6.44000000       0.98000000  F       0.00000000       0.00000000       0.00000000
Si       5.91000000       7.08000000       1.49000000  F       0.00000000       0.00000000       0.00000000
C        4.99433095       5.00104644      26.41713773  T      -0.43973460       0.08426536     -13.16269513
F        5.79296185       6.03358101      26.41720607  T       0.19192171       0.27504990     -20.81121595
F        5.79342842       3.96583002      26.41721568  T       0.25139175      -0.35012070     -20.81064526
153
Lattice="10.0 0.0 0.0 0.0 10.0 0.0 0.0 0.0 43.74" Properties=species:S:1:pos:R:3:move_mask:L:1:momenta:R:3 etch=trj_CF2_30eV_case1 idx=0 index=0 source=trj_CF2_30eV_case1/0000/OUTCAR converged=T time_fs=4.0 pbc="T T T"
O        2.27618332       4.48740359      13.83037227  T      -0.30530641       0.59225679       0.03599133
O        1.48117865       2.43410553      12.56468686  T       0.08908672       0.32049635      -0.43194125
O        3.90719008       2.71705462      14.18267925  T      -0.22515000      -0.24051453       0.21753853
O        3.82122554       4.56372094      16.06327317  T       0.08921246       0.28895527       0.25884274
O        1.64800233       2.88874160      15.79629330  T      -0.14823791      -0.09604481       0.49883300
O        5.09734136       1.64099646      16.04787070  T      -0.21138743       0.08359752       0.60861970
O        5.25454019       0.82225830      13.24985134  T      -0.44191515       0.18565818      -0.00707527
O        6.15977954       3.62733238      14.03151476  T      -0.01771739      -0.20895980       0.12034217
O        7.07163523       1.33228700      14.62361356  T       0.12524428       0.18834859       0.28851488
O        9.06749718       2.28798604      16.26321010  T      -0.19834447      -0.15495473       0.26357647
O        9.53896230       0.41285491      14.71546596  T      -0.06910132       0.21418119       0.42443409
O        0.87234326       9.78527768      12.64120096  T       0.18897856      -0.36714530       0.08757725
O        1.22394389       8.21266358      14.64751095  T      -0.48514183       0.21122369      -0.19700282
O        9.86626581       6.98145120      12.03005309  T      -0.27216772       0.10561341       0.79128352
O        5.15308879       6.18032621      14.53264301  T       0.25122597       0.02499791       0.21375008
O        5.59397253       5.62789101      12.17240971  T       0.31681934      -0.17083325       0.18907594
O        7.78076128       5.79181220      13.63072527  T       0.05588699       0.14480930       0.05814306
O        5.60842409       8.19965860      12.67572159  T      -0.12541765       0.76250166      -0.34170725
O        8.54433799       8.39864385      13.63951319  T       0.34680665      -0.10802003      -0.03836560
O        2.43853707       5.21902835      21.43359887  T      -0.11408163      -0.08189691       0.28709825
O        0.21770426       6.18918605      22.75283137  T      -0.18180737      -0.06623983       0.22260738
O        1.83198794       0.12288907      19.96230185  T       0.15861458       0.22792230       0.18854351
O        2.16550491       2.92264236      19.87785422  T       0.43716006       0.96427875       0.60741958
O        3.43389872       1.25165782      18.20879083  T       0.29774561       0.13251636      -0.08970458
O        0.91894892       1.48415150      18.01127419  T      -0.08724158       0.33311427       0.10415662
O        0.40043845       4.11360088      17.73347026  T       0.03613732       0.26387228       0.26968980
O        9.09020237       1.35041793      21.39197031  T       0.01701210       0.03455096       0.15868742
O        5.41903412       2.96177466      18.38364099  T      -0.07279368       0.14878947      -0.50382799
O        4.60327646       3.96846914      20.62896754  T       0.26151182      -0.12216405      -0.08014668
O        7.10758496       2.68146619      20.21334417  T      -0.19283601       0.11910385       0.26999616
O        6.44653509       0.41280615      21.41183123  T      -0.26653905       0.23189001       0.14329908
O        6.63770319       5.24659159      19.38147064  T      -0.17992490      -0.26437682       0.11292443
O        7.90449800       9.80182416      16.73276927  T       0.34565289       0.13750041      -0.54847523
O        3.86658736       7.03774515      16.86158864  T      -0.26923922      -0.18058227       0.12305164
O        3.70341685       9.42013832      21.43009231  T       0.27363829       0.00853203       0.00381623
O        3.20010905       7.95168403      19.09240455  T       0.01098688       0.13642733       0.19176929
O        1.30098173       6.62052451      17.78529738  T      -0.68582798       0.04786625      -0.37006793
O        3.20980798       5.27724359      18.89044247  T      -0.01625516      -0.21026352       0.02882596
O        0.36043859       5.53244030      19.99990441  T       0.02603436       0.19584635       0.77372610
O        1.54568879       7.68656581      21.02547576  T      -0.33300355      -0.25272597       0.43298950
O        4.75552680       8.47145333      21.90430089  T       0.43806124       0.11315805       0.34531168
O        8.01898438       0.21841161      19.38775872  T      -0.07796835      -0.12598888      -0.17713489
O        6.92181782       8.84838125      23.74308216  T       0.13446136      -0.12569582       0.22707180
O        6.20324940       5.74166475      16.87296496  T       0.25142446       0.13596453       0.23231323
O        5.76927680       0.30802783      18.18098892  T      -0.05799230      -0.16133961       0.08082144
O        8.71708995       5.97247947      17.90969540  T      -0.23121230       0.19979864      -0.02238223
O        6.97985205       7.87367474      18.42823267  T      -0.01269614       0.28708731      -0.14100252
O        2.27209042       4.49012925       3.82672974  T      -0.62883813       0.80295954      -0.24236679
O        1.47998716       2.43027727       2.56217683  T       0.00176733       0.02542405      -0.63374782
O        3.90927098       2.71872593       4.18070919  T      -0.05829964      -0.10309674       0.05320450
O        3.70359535       4.59902764       6.15526838  T      -0.47978121      -0.84421916      -0.37092059
O        1.71539226       2.92871807       5.80217162  T      -0.36188291      -0.09783048       0.16562622
O        4.82243110       1.32105538       5.88213597  T       0.19633775       0.08034198      -0.60270205
O        5.25726702       0.82121777       3.24743247  T      -0.21876850       0.10187884      -0.20478992
O        6.16049529       3.62936362       4.03131151  T       0.04033338      -0.05189462       0.10508337
O        7.07237692       1.33382097       4.62671821  T       0.18406592       0.31284008       0.53723479
O        8.96995351       2.44841554       6.26505679  T       0.79662631      -0.13259468       0.40576362
O        9.54449634       0.41531042       4.70953892  T       0.36266401       0.42355760      -0.04289584
O        0.87402469       9.78994160       2.63491853  T       0.32066004      -0.01192071      -0.40268341
O        1.22179526       8.21400284       4.64546013  T      -0.65810653       0.31753591      -0.36304996
O        9.87000000       6.98000000       2.02000000  F       0.00000000       0.00000000       0.00000000
O        5.15395863       6.17616836       4.53241096  T       0.31933314      -0.30837332       0.19514927
O        5.59000000       5.63000000       2.17000000  F       0.00000000       0.00000000       0.00000000
O        7.78033480       5.79245143       3.62873108  T       0.02200809       0.19369875      -0.10067086
O        5.60947332       8.19478993       2.67334862  T      -0.04253780       0.38181099      -0.53530574
O        8.54250291       8.39686563       3.63643239  T       0.20521453      -0.24398565      -0.28249589
O        3.54464469       4.17909243      11.52843792  T      -0.42443172      -0.07311797      -0.12480881
O        1.14029732       4.88672590      11.35137827  T       0.02031086      -0.25542054       0.10948493
O        1.73734090       0.91783090      10.34570858  T      -0.20418841      -0.16827742       0.43833038
O        2.79047897       3.09617652       9.32058850  T       0.02649025       0.47381152       0.04012797
O        3.57461102       0.96372416       8.14606342  T      -0.41352177       0.29648519       0.47854040
O        1.06737794       1.65672996       7.93139523  T      -0.21334198      -0.25903375       0.11179462
O        0.43052613       4.16842366       7.88911389  T       0.04149897      -0.11815544      -0.07020006
O        9.28449170       1.31048410      11.43374238  T      -0.43047127       0.03768048      -0.49880970
O        5.92411105       2.56154856       7.78266435  T       0.32524833       0.11554144       0.20791954
O        5.26328080       4.03046381       9.71071980  T       0.24674545       0.04257777       0.06543365
O        7.34233006       2.44227873      10.03055252  T       0.19039033       0.17624762       0.04507694
O        6.82820437       0.19568335      11.30599576  T      -0.91337422      -0.32639252       0.45470652
O        7.51828800       4.85606238       8.95852866  T      -0.13750487      -0.30826583      -0.12870872
O        8.09042013       9.73420492       6.59656673  T       0.02410480       0.33177918      -0.25924474
O        4.07605927       7.04727096       6.84437075  T       0.46787365      -0.21174659      -0.43208299
O        3.95317869       9.59833398      11.24694355  T       0.25527348      -0.13196283      -0.24672962
O        3.06005218       8.34829179       8.86801752  T       0.00263821      -0.13807177      -0.15770572
O        1.53894084       6.63647599       7.47075471  T      -0.08322236      -0.28181608       0.05370232
O        3.34963419       5.60800029       9.01465356  T      -0.03400163      -0.14307950       0.36365889
O        0.19693017       6.48838765       9.53403064  T      -0.24945682      -0.13919449       0.30253821
O        2.27391013       7.41397319      11.08399514  T      -0.46476319      -0.46775402       0.31315939
O        4.98448493       7.36308831      10.21064530  T      -0.43327717       0.24164763       0.06598429
O        8.17965537       0.04708645       9.20386456  T      -0.02504516      -0.22837725      -0.47912193
O        7.52045809       7.20954036      11.36630785  T       0.03090456      -0.03772607      -0.29703266
O        6.18184460       5.50065266       6.87997199  T       0.14736671       0.05260542      -0.00451624
O        5.81096469       9.89722047       8.02890646  T       0.07105541      -0.21753894      -0.09085442
O        8.93353496       6.08025691       7.09570134  T      -0.51010328       0.02133746       0.45516050
O        7.26769908       7.67113314       8.17048756  T      -0.18651539       0.08803550       0.03951806
O        3.55000000       4.18000000       1.53000000  F       0.00000000       0.00000000       0.00000000
O        1.14000000       4.89000000       1.35000000  F       0.00000000       0.00000000       0.00000000
O        9.29000000       1.31000000       1.44000000  F       0.00000000       0.00000000       0.00000000
O        6.84000000       0.20000000       1.30000000  F       0.00000000       0.00000000       0.00000000
O        3.95000000       9.60000000       1.25000000  F       0.00000000       0.00000000       0.00000000
O        2.28000000       7.42000000       1.08000000  F       0.00000000       0.00000000       0.00000000
O        7.52000000       7.21000000       1.37000000  F       0.00000000       0.00000000       0.00000000
Si       2.10196509       3.97778695      12.31980637  T       0.27326934      -0.30667910      -0.02328765
Si       2.89187917       3.64823610      15.08746372  T       0.26060126      -0.24421868      -0.35659324
Si       0.88863124       1.15041536      11.76580736  T      -0.19764589       0.05374240      -0.58247752
Si       8.27310358       0.95354997      15.60938129  T       0.43526795       0.50017728      -0.08243779
Si       5.41477076       1.99284046      14.42948151  T       0.67437751       0.40151185      -0.06586436
Si       4.78713909       5.94572517      16.08092513  T      -0.39484731      -0.60525330       0.13374220
Si       0.00216341       9.15735149      13.87018486  T       0.29635006      -0.35986333       0.03491049
Si       6.20820296       5.20960378      13.70372073  T      -0.24889803      -0.06229359      -0.87971116
Si       5.42113754       9.76822345      12.06382442  T       0.14849151      -0.24328934       0.54445220
Si       8.39091429       7.03957837      12.73787099  T       0.12410753      -0.05955956      -0.29784067
Si       3.04213134       4.32758866      20.22770257  T       0.30608971      -0.33430114      -0.31219521
Si       2.13638648       1.51278895      19.12581766  T      -0.49861583      -0.97146804      -0.57628299
Si       0.48084293       2.69689959      17.00389232  T       0.11292251      -0.41883121      -0.85637866
Si       4.92008279       1.59797717      17.68501434  T       0.02116578      -0.28226098      -0.69482810
Si       5.95113951       3.76988109      19.66313460  T       0.15447846      -0.02739231       0.42920237
Si       7.63434737       1.18419676      20.65379298  T       0.60124423       0.58333035      -0.86660037
Si       2.57102238       8.73179521      20.38602809  T       0.13567398       0.24458696      -0.54223459
Si       2.84795240       6.67392336      18.12111292  T       1.08189871       0.54203107       0.15509062
Si       1.08039466       6.15943816      21.42331804  T       0.05636408      -0.08724570      -0.93977645
Si       0.20730812       5.57819106      18.39775454  T      -0.38131249      -0.25020515      -0.29814041
Si       6.22169129       9.27575986      22.46853313  T      -1.16042513      -0.59750297      -0.19093564
Si       7.12997264       6.24109906      18.15846056  T      -0.00902252       0.15393920      -0.20898622
Si       7.17880366       9.52614309      18.11677499  T      -0.15725259      -0.53572499       0.92201693
Si       2.10000000       3.98000000       2.32000000  F       0.00000000       0.00000000       0.00000000
Si       2.91426552       3.64985101       5.03297817  T       0.57498243      -0.02065598       0.39978661
Si       0.89000000       1.15000000       1.77000000  F       0.00000000       0.00000000       0.00000000
Si       8.35665064       1.04153474       5.59960721  T      -0.45772353       0.21975547      -0.05281300
Si       5.41390837       1.98905767       4.43092005  T       0.55475818      -0.13094464       0.12208019
Si       4.78202090       5.76773867       6.06405319  T       0.26775985       1.05710643       0.56908000
Si       0.00385328       9.15499227       3.87489041  T       0.54360341      -0.69179505       0.68768081
Si       6.20850077       5.20831891       3.70688905  T      -0.20757267      -0.24045458      -0.44121614
Si       5.42000000       9.77000000       2.06000000  F       0.00000000       0.00000000       0.00000000
Si       8.39165287       7.04010237       2.74182685  T       0.23405718       0.01084097       0.25075462
Si       3.71867273       4.28876429       9.89195480  T      -0.17534263      -0.17365157       0.27858158
Si       2.29321229       1.61761882       9.00505092  T       0.43962663      -0.32330659      -0.68022401
Si       0.55432122       2.81200210       6.93977565  T      -0.79978238       0.27180319      -0.02835722
Si       5.02922126       1.19205707       7.45240485  T      -0.11009445       0.28989732       0.32682437
Si       6.58736158       3.44127313       9.03929532  T      -0.36236380       0.17975936      -0.09439092
Si       7.93484104       1.01904335      10.49941056  T       0.65060888      -0.14929653      -0.07865436
Si       3.50461238       8.23113062      10.42002508  T       0.63499880       0.14930748       0.00945785
Si       3.06276424       6.90128906       8.07751237  T      -1.00835224       0.17123751      -0.35453431
Si       0.91331751       6.44173685      10.97994986  T       0.44863829       0.23791945       0.01217375
Si       0.20619809       5.79064852       8.09065454  T       0.87099857       0.09341146      -1.30021518
Si       5.90993506       7.07706526      11.49554144  T      -0.01353595      -0.40492558       0.77455651
Si       7.41214965       6.06216894       7.84473718  T       0.30029482       0.29931178      -0.73067448
Si       7.31317504       9.31830221       7.93775278  T       0.45470346      -0.23610408       1.07738891
Si       7.93000000       1.02000000       0.50000000  F       0.00000000       0.00000000       0.00000000
Si       0.91000000       6.44000000       0.98000000  F       0.00000000       0.00000000       0.00000000
Si       5.91000000       7.08000000       1.49000000  F       0.00000000       0.00000000       0.00000000
C        4.99028552       5.00183901      26.30948288  T      -0.54411981       0.10906590     -13.16504345
F        5.79407521       6.03519303      26.30960656  T       0.23624698       0.34589378     -20.81115126
F        5.79489464       3.96377203      26.30961791  T       0.31281671      -0.44280626     -20.81105877
153
Lattice="10.0 0.0 0.0 0.0 10.0 0.0 0.0 0.0 43.74" Properties=species:S:1:pos:R:3:move_mask:L:1:momenta:R:3 etch=trj_CF2_30eV_case1 idx=0 index=0 source=trj_CF2_30eV_case1/0000/OUTCAR converged=T time_fs=5.0 pbc="T T T"
O        2.27409513       4.49145426      13.83064103  T      -0.37411552       0.72565836       0.05228757
O        1.48176848       2.43626792      12.56170669  T       0.10206069       0.38190279      -0.53870202
O        3.90564892       2.71539104      14.18417895  T      -0.27632122      -0.30149414       0.27085395
O        3.82180244       4.56566408      16.06503248  T       0.09716790       0.34192619       0.31314990
O        1.64703224       2.88810186      15.79968720  T      -0.16564091      -0.11143870       0.60465817
O        5.09590042       1.64158275      16.05195379  T      -0.25724467       0.10772687       0.71666962
O        5.25149829       0.82354668      13.24982063  T      -0.54856893       0.23424505      -0.00225258
O        6.15965805       3.62591998      14.03233454  T      -0.02182213      -0.24990975       0.14624133
O        7.07247140       1.33359544      14.62558509  T       0.14604743       0.23815600       0.35289501
O        9.06614734       2.28694931      16.26503825  T      -0.24059480      -0.18144767       0.33222500
O        9.53854126       0.41426833      14.71832206  T      -0.06590684       0.24380322       0.50308383
O        0.87364133       9.78280552      12.64176868  T       0.23356495      -0.43573523       0.09595152
O        1.22062365       8.21410081      14.64617182  T      -0.59518242       0.25606559      -0.23834625
O        9.86450218       6.98213545      12.03541861  T      -0.29793091       0.11560583       0.95276688
O        5.15482289       6.18049276      14.53411336  T       0.31362836       0.02899464       0.26495005
O        5.59613533       5.62671465      12.17368805  T       0.38667571      -0.21222096       0.22618567
O        7.78112475       5.79280217      13.63112314  T       0.06163478       0.17727958       0.07129852
O        5.60756895       8.20483365      12.67338740  T      -0.15269266       0.91952630      -0.41756553
O        8.54670887       8.39790651      13.63925267  T       0.42451671      -0.13184240      -0.04634225
O        2.43776843       5.21845235      21.43555994  T      -0.13553978      -0.10615284       0.35079068
O        0.21646835       6.18872851      22.75433827  T      -0.21991229      -0.08282066       0.26693581
O        1.83307134       0.12443625      19.96360817  T       0.19382992       0.27503519       0.23715330
O        2.16848171       2.92906816      19.88193470  T       0.53077443       1.12026584       0.71760921
O        3.43588296       1.25256380      18.20820321  T       0.34586848       0.16223978      -0.10050103
O        0.91833990       1.48643382      18.01199459  T      -0.11143318       0.40963466       0.13051950
O        0.40068943       4.11531736      17.73528627  T       0.04565529       0.29131451       0.32012851
O        9.09032158       1.35065840      21.39305955  T       0.02186659       0.04384824       0.19585150
O        5.41855269       2.96281709      18.38021227  T      -0.08322238       0.19128646      -0.61114205
O        4.60506271       3.96763451      20.62842823  T       0.31956852      -0.14936699      -0.09496204
O        7.10626764       2.68228750      20.21520021  T      -0.23569379       0.14837060       0.33426596
O        6.44475048       0.41441837      21.41280067  T      -0.31269954       0.29356804       0.17180951
O        6.63648668       5.24481407      19.38222554  T      -0.21534145      -0.31277539       0.13202292
O        7.90681166       9.80273424      16.72912519  T       0.40533292       0.15750297      -0.63332769
O        3.86476043       7.03650927      16.86241444  T      -0.32456250      -0.22155836       0.14495440
O        3.70529058       9.42018694      21.43010569  T       0.33614770       0.00690044       0.00007061
O        3.20019309       7.95262337      19.09371349  T       0.01673559       0.16942697       0.23396409
O        1.29641721       6.62087329      17.78278822  T      -0.79485451       0.06639390      -0.44552270
O        3.20969365       5.27584339      18.89061539  T      -0.02105057      -0.24385510       0.02651342
O        0.36058193       5.53378129      20.00512654  T       0.01917947       0.24044878       0.92258486
O        1.54345485       7.68491879      21.02841881  T      -0.39218401      -0.28001272       0.52387781
O        4.75850552       8.47221454      21.90666737  T       0.53026200       0.13396192       0.42479053
O        8.01846373       0.21755428      19.38655559  T      -0.09091410      -0.15276192      -0.21396904
O        6.92269729       8.84753588      23.74456416  T       0.15017341      -0.14881931       0.25247589
O        6.20493724       5.74260492      16.87453553  T       0.29649465       0.17031753       0.27796781
O        5.76887956       0.30691102      18.18154803  T      -0.07128605      -0.20254206       0.10133459
O        8.71551485       5.97385136      17.90954966  T      -0.28099523       0.24676700      -0.02475746
O        6.97976187       7.87561189      18.42726965  T      -0.01678371       0.34210287      -0.17227213
O        2.26780259       4.49559528       3.82514075  T      -0.76584494       0.97457761      -0.27218458
O        1.48000989       2.43046365       2.55781244  T       0.00605928       0.03573148      -0.78743699
O        3.90887228       2.71801638       4.18106004  T      -0.07142219      -0.12793655       0.06045250
O        3.70043208       4.59337568       6.15276228  T      -0.54505952      -0.99017545      -0.44308762
O        1.71294154       2.92806631       5.80327492  T      -0.43458740      -0.11356964       0.19224954
O        4.82378056       1.32158968       5.87811048  T       0.24295492       0.09291320      -0.70340267
O        5.25577029       0.82193134       3.24603403  T      -0.26822012       0.13094971      -0.25012464
O        6.16077389       3.62900483       4.03203082  T       0.05042525      -0.06500666       0.12897173
O        7.07361261       1.33598800       4.63039165  T       0.21703722       0.39333367       0.65790282
O        8.97540208       2.44748629       6.26783612  T       0.97600810      -0.17065985       0.49863488
O        9.54698752       0.41820323       4.70922353  T       0.44825665       0.51753150      -0.06054406
O        0.87621357       9.78983321       2.63217798  T       0.39139136      -0.02437567      -0.48850117
O        1.21728942       8.21616289       4.64297888  T      -0.80795512       0.38466619      -0.44407523
O        9.87000000       6.98000000       2.02000000  F       0.00000000       0.00000000       0.00000000
O        5.15615271       6.17405212       4.53375459  T       0.39492557      -0.38045998       0.24238890
O        5.59000000       5.63000000       2.17000000  F       0.00000000       0.00000000       0.00000000
O        7.78046749       5.79376716       3.62804564  T       0.02046764       0.23403014      -0.12222302
O        5.60918091       8.19739573       2.66967547  T      -0.05265255       0.46575311      -0.66024820
O        8.54392541       8.39522255       3.63451131  T       0.25836803      -0.28957564      -0.34209911
O        3.54175703       4.17859044      11.52758499  T      -0.51447222      -0.09028149      -0.15266127
O        1.14042343       4.88500287      11.35212435  T       0.02023243      -0.30427822       0.13316650
O        1.73597598       0.91669848      10.34863881  T      -0.23868915      -0.19952396       0.51246415
O        2.79061667       3.09934320       9.32083716  T       0.01667341       0.55375606       0.03978334
O        3.57184966       0.96574582       8.14931144  T      -0.48221234       0.36098274       0.57721371
O        1.06590549       1.65496761       7.93216080  T      -0.26624479      -0.31402210       0.13734941
O        0.43080789       4.16764551       7.88863622  T       0.05010477      -0.13383799      -0.08513013
O        9.28158643       1.31073812      11.43033790  T      -0.51319972       0.04484048      -0.60855838
O        5.92632220       2.56230787       7.78406701  T       0.39366124       0.13031657       0.24770179
O        5.26491083       4.03077528       9.71119667  T       0.28144243       0.05953634       0.09086298
O        7.34364699       2.44346208      10.03086375  T       0.23864730       0.20794256       0.05626874
O        6.82206767       0.19351922      11.30901490  T      -1.07915485      -0.37524659       0.52423112
O        7.51734548       4.85397862       8.95760751  T      -0.16923408      -0.36878541      -0.17256648
O        8.09055047       9.73645754       6.59484989  T       0.01702742       0.40052969      -0.29724722
O        4.07919597       7.04584949       6.84148341  T       0.55018158      -0.24953355      -0.50471359
O        3.95492848       9.59743662      11.24524769  T       0.31419990      -0.15977674      -0.30536325
O        3.06006441       8.34734201       8.86694217  T       0.00110701      -0.17117188      -0.19204119
O        1.53837772       6.63454947       7.47109578  T      -0.09972328      -0.34491215       0.05614882
O        3.34938394       5.60708363       9.01710952  T      -0.04810797      -0.15284379       0.43425976
O        0.19521021       6.48739827       9.53602787  T      -0.31063232      -0.18411138       0.34465445
O        2.27081418       7.41082700      11.08611430  T      -0.53937440      -0.55387283       0.37554515
O        4.98155114       7.36472033      10.21114974  T      -0.52009819       0.28849477       0.10017426
O        8.17949465       0.04554241       9.20063208  T      -0.02674726      -0.27326129      -0.57080138
O        7.52064821       7.20927860      11.36427025  T       0.03013669      -0.04759780      -0.36613918
O        6.18285169       5.50101407       6.87993254  T       0.18026005       0.06505697      -0.00865490
O        5.81142854       9.89575024       8.02827249  T       0.07905365      -0.26015115      -0.11590328
O        8.93007462       6.08040584       7.09881047  T      -0.61448181       0.02724029       0.55623500
O        7.26641416       7.67172528       8.17075984  T      -0.23191200       0.10421781       0.04915583
O        3.55000000       4.18000000       1.53000000  F       0.00000000       0.00000000       0.00000000
O        1.14000000       4.89000000       1.35000000  F       0.00000000       0.00000000       0.00000000
O        9.29000000       1.31000000       1.44000000  F       0.00000000       0.00000000       0.00000000
O        6.84000000       0.20000000       1.30000000  F       0.00000000       0.00000000       0.00000000
O        3.95000000       9.60000000       1.25000000  F       0.00000000       0.00000000       0.00000000
O        2.28000000       7.42000000       1.08000000  F       0.00000000       0.00000000       0.00000000
O        7.52000000       7.21000000       1.37000000  F       0.00000000       0.00000000       0.00000000
Si       2.10302375       3.97660104      12.31972437  T       0.33091682      -0.36999553      -0.02289616
Si       2.89288746       3.64729215      15.08607345  T       0.31478335      -0.29436826      -0.43751288
Si       0.88784948       1.15061519      11.76355115  T      -0.24967224       0.05975537      -0.70525295
Si       8.27479813       0.95550220      15.60906969  T       0.53244963       0.61504897      -0.09486002
Si       5.41740787       1.99441055      14.42923930  T       0.83246994       0.49563827      -0.07153436
Si       4.78561540       5.94335679      16.08145447  T      -0.47439496      -0.74808628       0.16916085
Si       0.00330253       9.15597461      13.87033914  T       0.35323392      -0.42486860       0.05434971
Si       6.20724072       5.20934669      13.70029853  T      -0.30013979      -0.08555060      -1.07436940
Si       5.42169135       9.76728988      12.06596168  T       0.16602160      -0.28877265       0.67735147
Si       8.39138837       7.03934565      12.73671306  T       0.14596491      -0.07339596      -0.36331940
Si       3.04333927       4.32629638      20.22650850  T       0.38496943      -0.40294379      -0.36824187
Si       2.13446278       1.50908702      19.12359340  T      -0.59876980      -1.13774260      -0.69294328
Si       0.48127111       2.69530177      17.00055853  T       0.13079939      -0.49157870      -1.04748567
Si       4.92018533       1.59688114      17.68231963  T       0.03874149      -0.34349099      -0.84322049
Si       5.95172980       3.76975204      19.66478371  T       0.18189049      -0.04778777       0.51112285
Si       7.63667092       1.18645721      20.65042681  T       0.72463151       0.70692598      -1.05531600
Si       2.57153442       8.73273273      20.38394832  T       0.15566971       0.28988380      -0.64337400
Si       2.85209670       6.67601639      18.12171567  T       1.28062643       0.65212464       0.18919439
Si       1.08061602       6.15908088      21.41965529  T       0.07013750      -0.11794400      -1.15197622
Si       0.20581554       5.57722473      18.39662824  T      -0.47161307      -0.30107206      -0.34288221
Si       6.21718404       9.27342818      22.46782103  T      -1.41284476      -0.73432490      -0.21369560
Si       7.12992638       6.24169818      18.15766175  T      -0.01816095       0.18822259      -0.24617352
Si       7.17821236       9.52406813      18.12030711  T      -0.17918687      -0.64854616       1.09150084
Si       2.10000000       3.98000000       2.32000000  F       0.00000000       0.00000000       0.00000000
Si       2.91645483       3.64976950       5.03449673  T       0.67196673      -0.02616841       0.46487511
Si       0.89000000       1.15000000       1.77000000  F       0.00000000       0.00000000       0.00000000
Si       8.35489485       1.04239968       5.59940672  T      -0.54309864       0.27481083      -0.06128925
Si       5.41608248       1.98855065       4.43138037  T       0.68784573      -0.15839477       0.13976072
Si       4.78303363       5.77179583       6.06626902  T       0.30902229       1.25607959       0.69622224
Si       0.00597534       9.15232192       3.87757116  T       0.66850766      -0.83155274       0.84342698
Si       6.20769827       5.20737261       3.70516073  T      -0.25034798      -0.30068097      -0.54653826
Si       5.42000000       9.77000000       2.06000000  F       0.00000000       0.00000000       0.00000000
Si       8.39256900       7.04013695       2.74279137  T       0.28947513       0.00836432       0.29925285
Si       3.71801228       4.28808767       9.89304859  T      -0.20042339      -0.21277289       0.34666337
Si       2.29489949       1.61638289       9.00243166  T       0.52208266      -0.38093734      -0.81367726
Si       0.55120096       2.81304137       6.93967199  T      -0.98250031       0.32044238      -0.03036140
Si       5.02879128       1.19318857       7.45365604  T      -0.13548417       0.35646529       0.38638814
Si       6.58596718       3.44197550       9.03893749  T      -0.43283733       0.22151811      -0.10927265
Si       7.93731491       1.01843135      10.49911099  T       0.75829140      -0.20213222      -0.09221051
Si       3.50706012       8.23169306      10.42007380  T       0.76129376       0.17071336       0.01908806
Si       3.05885195       6.90193593       8.07612077  T      -1.22500966       0.19689586      -0.44086949
Si       0.91502914       6.44265008      10.98003656  T       0.52650057       0.28259486       0.03982259
Si       0.20959182       5.79101632       8.08561375  T       1.06716036       0.11676692      -1.57717878
Si       5.90987320       7.07550317      11.49855196  T      -0.02237987      -0.48614612       0.94443147
Si       7.41331543       6.06332427       7.84190816  T       0.36512513       0.35984949      -0.88388076
Si       7.31496413       9.31738684       7.94192659  T       0.56813954      -0.28644132       1.30483535
Si       7.93000000       1.02000000       0.50000000  F       0.00000000       0.00000000       0.00000000
Si       0.91000000       6.44000000       0.98000000  F       0.00000000       0.00000000       0.00000000
Si       5.91000000       7.08000000       1.49000000  F       0.00000000       0.00000000       0.00000000
C        4.98551270       5.00282243      26.20180771  T      -0.61670463       0.13075976     -13.16756275
F        5.79538115       6.03713341      26.20200731  T       0.26598269       0.40171493     -20.81111566
F        5.79663524       3.96128084      26.20201776  T       0.35702329      -0.51717204     -20.81158455
153
Lattice="10.0 0.0 0.0 0.0 10.0 0.0 0.0 0.0 43.74" Properties=species:S:1:pos:R:3:move_mask:L:1:momenta:R:3 etch=trj_CF2_30eV_case1 idx=0 index=0 source=trj_CF2_30eV_case1/0000/OUTCAR converged=T time_fs=6.0 pbc="T T T"
O        2.27159862       4.49629597      13.83102206  T      -0.43817319       0.84964138       0.07260423
O        1.48242088       2.43877270      12.55807409  T       0.10931593       0.43172107      -0.64440241
O        3.90380355       2.71335159      14.18600334  T      -0.32412753      -0.36296054       0.32325083
O        3.82240153       4.56789590      16.06710608  T       0.09619602       0.38261082       0.36105400
O        1.64599215       2.88738327      15.80369446  T      -0.17067908      -0.12160756       0.69823327
O        5.09419110       1.64232289      16.05661728  T      -0.29868454       0.13375151       0.79685732
O        5.24780918       0.82513672      13.24983100  T      -0.65264851       0.28391971       0.00637294
O        6.15951198       3.62427739      14.03330521  T      -0.02572253      -0.28373688       0.16939765
O        7.07341665       1.33521427      14.62793774  T       0.16065702       0.28947772       0.41255693
O        9.06455140       2.28577259      16.26729240  T      -0.27841457      -0.20035512       0.40235839
O        9.53817639       0.41582231      14.72161213  T      -0.05055669       0.25975738       0.56547179
O        0.87520764       9.77995387      12.64236390  T       0.27627433      -0.49046125       0.09638504
O        1.21664991       8.21579764      14.64459424  T      -0.69774695       0.29558602      -0.27449537
O        9.86265546       6.98285266      12.04171084  T      -0.29873112       0.11619460       1.09271288
O        5.15693946       6.18067919      14.53589315  T       0.37581193       0.03140350       0.31446911
O        5.59870865       5.62528690      12.17517371  T       0.45031832      -0.25268205       0.25632854
O        7.78150840       5.79398463      13.63159876  T       0.06233295       0.20745264       0.08341654
O        5.60655438       8.21090676      12.67060699  T      -0.17725019       1.05423133      -0.48678191
O        8.54953933       8.39702849      13.63894577  T       0.49630512      -0.15381846      -0.05347688
O        2.43688126       5.21772029      21.43789531  T      -0.15256995      -0.13279983       0.40878140
O        0.21501436       6.18816889      22.75609352  T      -0.25257420      -0.09950105       0.30314519
O        1.83436271       0.12625485      19.96521559  T       0.22628891       0.31620407       0.28664735
O        2.17200220       2.93630452      19.88662073  T       0.61388543       1.22749508       0.80433815
O        3.43811554       1.25364586      18.20756996  T       0.37831393       0.18981476      -0.10443707
O        0.91757735       1.48917334      18.01287667  T      -0.13733330       0.48193074       0.15677627
O        0.40099935       4.11713523      17.73738219  T       0.05532195       0.29653094       0.36070190
O        9.09047127       1.35095706      21.39437192  T       0.02692532       0.05351479       0.23130566
O        5.41802107       2.96412858      18.37615801  T      -0.08904628       0.23642350      -0.70736255
O        4.60719160       3.96663907      20.62780859  T       0.37299445      -0.17447987      -0.10611280
O        7.10469757       2.68328720      20.21744468  T      -0.27505034       0.17719209       0.39646124
O        6.44271816       0.41641301      21.41393386  T      -0.34702240       0.35632816       0.19666219
O        6.63507021       5.24277168      19.38308122  T      -0.24491470      -0.35039836       0.14563015
O        7.90944627       9.80374253      16.72504898  T       0.45000013       0.16938111      -0.68884369
O        3.86261697       7.03502969      16.86335716  T      -0.37209262      -0.25988663       0.16092200
O        3.70753807       9.42021855      21.43008813  T       0.39533812       0.00293006      -0.00630218
O        3.20031854       7.95376270      19.09526981  T       0.02456298       0.20151516       0.27218738
O        1.29128787       6.62134650      17.77984617  T      -0.86943281       0.08841383      -0.51086571
O        3.20954892       5.27427120      18.89075727  T      -0.02614262      -0.26603302       0.01860880
O        0.36065737       5.53538636      20.01117922  T       0.00361459       0.28168735       1.04347115
O        1.54090077       7.68316889      21.03188819  T      -0.43698155      -0.28576697       0.60418667
O        4.76201474       8.47308872      21.90950755  T       0.61035115       0.14978342       0.49937285
O        8.01787610       0.21654183      19.38514058  T      -0.09965376      -0.17640986      -0.24600768
O        6.92364176       8.84656331      23.74614760  T       0.15545372      -0.16703553       0.25981004
O        6.20686909       5.74375609      16.87636325  T       0.33062881       0.20466469       0.31585891
O        5.76840282       0.30554010      18.18223336  T      -0.08387669      -0.24410224       0.12191990
O        8.71364961       5.97550574      17.90939507  T      -0.32554648       0.29174724      -0.02522194
O        6.97964477       7.87785473      18.42612220  T      -0.02149008       0.38632049      -0.20099563
O        2.26270935       4.50206283       3.82342007  T      -0.89096361       1.12881936      -0.28509514
O        1.48006628       2.43072100       2.55251399  T       0.01280550       0.04863291      -0.93789278
O        3.90839571       2.71715620       4.18144454  T      -0.08364003      -0.15213810       0.06408303
O        3.69696304       4.58694264       6.14985473  T      -0.57884256      -1.09789474      -0.50114460
O        1.71007626       2.92733350       5.80451570  T      -0.49669934      -0.12412174       0.21025355
O        4.82541088       1.32218750       5.87355563  T       0.28774908       0.10091831      -0.77453758
O        5.25398003       0.82282984       3.24436824  T      -0.31427411       0.16216668      -0.29177119
O        6.16111452       3.62856511       4.03289219  T       0.06054166      -0.07827104       0.15130733
O        7.07502591       1.33865357       4.63477970  T       0.24165944       0.47528450       0.76972280
O        8.98191198       2.44631382       6.27116829  T       1.14179765      -0.21193853       0.58561151
O        9.54999360       0.42165146       4.70878806  T       0.53022341       0.60432557      -0.08205776
O        0.87881986       9.78963160       2.62893727  T       0.45651476      -0.04239125      -0.56541906
O        1.21189465       8.21870934       4.64002084  T      -0.94717252       0.44299621      -0.51802468
O        9.87000000       6.98000000       2.02000000  F       0.00000000       0.00000000       0.00000000
O        5.15880264       6.17150273       4.53538559  T       0.46773760      -0.44937640       0.28874384
O        5.59000000       5.63000000       2.17000000  F       0.00000000       0.00000000       0.00000000
O        7.78057791       5.79531532       3.62723461  T       0.01465240       0.26925893      -0.14152558
O        5.60882751       8.20049437       2.66525266  T      -0.06238836       0.54208526      -0.77929428
O        8.54567754       8.39332866       3.63224519  T       0.31261265      -0.32539605      -0.39468052
O        3.53834723       4.17798529      11.52656766  T      -0.59419493      -0.10669530      -0.17827677
O        1.14053994       4.88300703      11.35300917  T       0.01712835      -0.34408199       0.15462799
O        1.73442926       0.91539256      10.35196019  T      -0.26317097      -0.22471729       0.56525720
O        2.79066542       3.10293287       9.32106512  T      -0.00265097       0.61118145       0.03325876
O        3.56873229       0.96814414       8.15312525  T      -0.52881705       0.41892669       0.66242354
O        1.06410964       1.65288553       7.93307911  T      -0.31864451      -0.36303303       0.16152479
O        0.43113941       4.16679679       7.88807157  T       0.05769046      -0.14090930      -0.09849729
O        9.27822074       1.31103227      11.42628856  T      -0.57994588       0.05073693      -0.70854297
O        5.92892955       2.56313245       7.78569156  T       0.45410338       0.13661609       0.28001521
O        5.26670629       4.03120187       9.71184591  T       0.30033816       0.08013705       0.12169905
O        7.34526069       2.44481803      10.03124286  T       0.28702766       0.23232547       0.06714765
O        6.81502447       0.19111154      11.31238340  T      -1.20789727      -0.40543184       0.56803026
O        7.51621324       4.85155311       8.95639667  T      -0.19925080      -0.41936683      -0.22319913
O        8.09061505       9.73910677       6.59294689  T       0.00258893       0.46079604      -0.31959629
O        4.08277351       7.04422742       6.83821482  T       0.61087878      -0.27662663      -0.55573357
O        3.95703090       9.59637867      11.24319787  T       0.37005659      -0.18415000      -0.36195585
O        3.06006314       8.34619167       8.86566558  T      -0.00179585      -0.20337666      -0.22316715
O        1.53772201       6.63225051       7.47142976  T      -0.11326134      -0.40292467       0.05108863
O        3.34903703       5.60615252       9.01996277  T      -0.06556158      -0.14752025       0.49283278
O        0.19311849       6.48611626       9.53822602  T      -0.37043249      -0.23457129       0.36769833
O        2.26733511       7.40720790      11.08858905  T      -0.58899452      -0.62136800       0.42885072
O        4.97812438       7.36661398      10.21189524  T      -0.59348215       0.32659050       0.14470757
O        8.17933364       0.04374606       9.19688998  T      -0.02494918      -0.31031815      -0.64458105
O        7.52081848       7.20895526      11.36181871  T       0.02434134      -0.05780325      -0.43173329
O        6.18405312       5.50145078       6.87986217  T       0.21058972       0.07712853      -0.01463767
O        5.81192482       9.89403964       8.02748075  T       0.08155471      -0.29568564      -0.14226049
O        8.92601984       6.08059210       7.10251532  T      -0.70312634       0.03350789       0.64891754
O        7.26485303       7.67240569       8.17109090  T      -0.27646031       0.11667272       0.05866352
O        3.55000000       4.18000000       1.53000000  F       0.00000000       0.00000000       0.00000000
O        1.14000000       4.89000000       1.35000000  F       0.00000000       0.00000000       0.00000000
O        9.29000000       1.31000000       1.44000000  F       0.00000000       0.00000000       0.00000000
O        6.84000000       0.20000000       1.30000000  F       0.00000000       0.00000000       0.00000000
O        3.95000000       9.60000000       1.25000000  F       0.00000000       0.00000000       0.00000000
O        2.28000000       7.42000000       1.08000000  F       0.00000000       0.00000000       0.00000000
O        7.52000000       7.21000000       1.37000000  F       0.00000000       0.00000000       0.00000000
Si       2.10427211       3.97520827      12.31965082  T       0.38148769      -0.42468910      -0.01828724
Si       2.89407347       3.64618465      15.08440910  T       0.36201322      -0.33752453      -0.51315709
Si       0.88688310       1.15082860      11.76088960  T      -0.30323915       0.06142676      -0.81389924
Si       8.27681978       0.95784487      15.60872335  T       0.62206564       0.72320012      -0.10215970
Si       5.42058648       1.99630304      14.42898790  T       0.98380859       0.58574258      -0.07101974
Si       4.78383377       5.94049891      16.08210969  T      -0.54200779      -0.88489245       0.20575174
Si       0.00462302       9.15439593      13.87057115  T       0.39984046      -0.47491125       0.07935772
Si       6.20611119       5.20900008      13.69622417  T      -0.34433472      -0.11362790      -1.25198290
Si       5.42228490       9.76621531      12.06856001  T       0.17079603      -0.32343330       0.80799710
Si       8.39192878       7.03906581      12.73533588  T       0.16184538      -0.08645753      -0.42304006
Si       3.04482641       4.32478146      20.22514179  T       0.46587448      -0.46117767      -0.41053736
Si       2.13221495       1.50487729      19.12098674  T      -0.68352119      -1.26127889      -0.79481247
Si       0.48175071       2.69348120      16.99658132  T       0.14213524      -0.54589089      -1.22383414
Si       4.92036157       1.59558076      17.67913488  T       0.06342546      -0.39896794      -0.97436643
Si       5.95240448       3.76953836      19.66669296  T       0.20259154      -0.07590277       0.57757267
Si       7.63939860       1.18912694      20.64642995  T       0.83198590       0.81704076      -1.22678155
Si       2.57210221       8.73381284      20.38155086  T       0.16738477       0.32596707      -0.72335229
Si       2.85686516       6.67846786      18.12243425  T       1.43809872       0.74659866       0.22140986
Si       1.08088461       6.15860784      21.41527849  T       0.08331957      -0.15348171      -1.34725078
Si       0.20401309       5.57609344      18.39537467  T      -0.55834756      -0.34428235      -0.37066774
Si       6.21183503       9.27063356      22.46705402  T      -1.64098961      -0.86171499      -0.22214842
Si       7.12984099       6.24241295      18.15674887  T      -0.03151484       0.22001633      -0.27395822
Si       7.17756032       9.52162084      18.12437126  T      -0.19193710      -0.74828084       1.22560291
Si       2.10000000       3.98000000       2.32000000  F       0.00000000       0.00000000       0.00000000
Si       2.91893465       3.64966604       5.03620669  T       0.74039655      -0.03344999       0.50870299
Si       0.89000000       1.15000000       1.77000000  F       0.00000000       0.00000000       0.00000000
Si       8.35287221       1.04345654       5.59918203  T      -0.60969981       0.32940515      -0.06652861
Si       5.41871567       1.98795357       4.43188890  T       0.81711616      -0.18230624       0.14943158
Si       4.78416918       5.77648224       6.06891138  T       0.33814828       1.41606270       0.81249976
Si       0.00852023       9.14919903       3.88077812  T       0.78493984      -0.94986929       0.98816171
Si       6.20675576       5.20621567       3.70306977  T      -0.28748936      -0.36088769      -0.64844183
Si       5.42000000       9.77000000       2.06000000  F       0.00000000       0.00000000       0.00000000
Si       8.39367553       7.04015729       2.74391033  T       0.34287074       0.00260621       0.33881033
Si       3.71728239       4.28727920       9.89437800  T      -0.21491042      -0.24891562       0.41317610
Si       2.29684419       1.61497001       8.99938370  T       0.58619338      -0.42409131      -0.92480388
Si       0.54746186       2.81423078       6.93956686  T      -1.15312513       0.35738665      -0.02907779
Si       5.02827569       1.19454614       7.45509376  T      -0.15891612       0.41900940       0.43328641
Si       6.58434763       3.44282027       9.03853708  T      -0.49076250       0.26110457      -0.11856374
Si       7.94010945       1.01762093      10.49876762  T       0.83325561      -0.26273198      -0.10389409
Si       3.50991626       8.23231502      10.42016253  T       0.86808388       0.18322955       0.03230330
Si       3.05421971       6.90265544       8.07443127  T      -1.41938735       0.21260033      -0.52466601
Si       0.91697759       6.44370247      10.98024283  T       0.58355309       0.31709641       0.08061009
Si       0.21364637       5.79146392       8.07965445  T       1.24823275       0.13883750      -1.82468747
Si       5.90977521       7.07367862      11.50213167  T      -0.03423193      -0.55462181       1.09964598
Si       7.41469557       6.06467677       7.83857466  T       0.42252128       0.41188143      -1.01862364
Si       7.31714698       9.31630409       7.94685145  T       0.67955440      -0.33172553       1.50612334
Si       7.93000000       1.02000000       0.50000000  F       0.00000000       0.00000000       0.00000000
Si       0.91000000       6.44000000       0.98000000  F       0.00000000       0.00000000       0.00000000
Si       5.91000000       7.08000000       1.49000000  F       0.00000000       0.00000000       0.00000000
C        4.98029002       5.00396739      26.09411212  T      -0.65360860       0.14842958     -13.17006269
F        5.79679883       6.03932023      26.09440834  T       0.27916762       0.44100659     -20.81099727
F        5.79855508       3.95845733      26.09441443  T       0.38186427      -0.57108117     -20.81226978
153
Lattice="10.0 0.0 0.0 0.0 10.0 0.0 0.0 0.0 43.74" Properties=species:S:1:pos:R:3:move_mask:L:1:momenta:R:3 etch=trj_CF2_30eV_case1 idx=0 index=0 source=trj_CF2_30eV_case1/0000/OUTCAR converged=T time_fs=7.0 pbc="T T T"
O        2.26872523       4.50186607      13.83154042  T      -0.49676777       0.96266373       0.09701309
O        1.48309849       2.44154402      12.55379684  T       0.11016773       0.46849209      -0.74861074
O        3.90167656       2.71093324      14.18814574  T      -0.36795282      -0.42492103       0.37436740
O        3.82296423       4.57033499      16.06945211  T       0.08511861       0.40911883       0.40177227
O        1.64496358       2.88661976      15.80823338  T      -0.16159081      -0.12598100       0.77747374
O        5.09224256       1.64322904      16.06167721  T      -0.33505960       0.16182274       0.84512904
O        5.24349029       0.82703488      13.24990665  T      -0.75362357       0.33458370       0.01903849
O        6.15934264       3.62245161      14.03440839  T      -0.02939370      -0.30940576       0.18932036
O        7.07443131       1.33715294      14.63064086  T       0.16860054       0.34233987       0.46697968
O        9.06273804       2.28450556      16.26998167  T      -0.31134984      -0.21070762       0.47394776
O        9.53794583       0.41743025      14.72523164  T      -0.02201494       0.26131656       0.61021090
O        0.87702924       9.77681227      12.64293577  T       0.31663633      -0.52999770       0.08827378
O        1.21207307       8.21771810      14.64281307  T      -0.79137070       0.32871935      -0.30448577
O        9.86088599       6.98354304      12.04879107  T      -0.27249605       0.10680711       1.20919147
O        5.15943709       6.18087458      14.53797063  T       0.43776070       0.03183628       0.36183262
O        5.60165062       5.62361414      12.17681922  T       0.50654623      -0.29199151       0.27796265
O        7.78187928       5.79534454      13.63214487  T       0.05737627       0.23503779       0.09420055
O        5.60539870       8.21772769      12.66742585  T      -0.19855894       1.16235876      -0.54780752
O        8.55278961       8.39602154      13.63859757  T       0.56107986      -0.17382451      -0.05980610
O        2.43590476       5.21681654      21.44056633  T      -0.16452674      -0.16212259       0.45995711
O        0.21338008       6.18750643      22.75804151  T      -0.27841616      -0.11633196       0.32941331
O        1.83584398       0.12830641      19.96712977  T       0.25563044       0.35084193       0.33708358
O        2.17599575       2.94404080      19.89176385  T       0.68452713       1.28272536       0.86639308
O        3.44049560       1.25488986      18.20693502  T       0.39373506       0.21494504      -0.10098924
O        0.91664947       1.49234229      18.01391890  T      -0.16537096       0.54942594       0.18262707
O        0.40136876       4.11891325      17.73969515  T       0.06500218       0.27821284       0.39075676
O        9.09065238       1.35131627      21.39589580  T       0.03207824       0.06357428       0.26468366
O        5.41746891       2.96572482      18.37154980  T      -0.08985731       0.28397770      -0.79143975
O        4.60963247       3.96549660      20.62713368  T       0.42105713      -0.19722777      -0.11289273
O        7.10289812       2.68446210      20.22006376  T      -0.31031075       0.20540785       0.45623507
O        6.44051370       0.41879411      21.41520908  T      -0.36867341       0.41925041       0.21817897
O        6.63349184       5.24053449      19.38400214  T      -0.26798163      -0.37604857       0.15319593
O        7.91230711       9.80479779      16.72072563  T       0.47898151       0.17278233      -0.71375371
O        3.86020893       7.03332394      16.86437684  T      -0.41052219      -0.29516804       0.16981772
O        3.71013821       9.42021788      21.43002298  T       0.45099809      -0.00366219      -0.01544595
O        3.20049953       7.95509538      19.09704641  T       0.03490873       0.23233780       0.30556143
O        1.28580948       6.62196545      17.77653660  T      -0.90856269       0.11381706      -0.56508390
O        3.20937224       5.27260083      18.89083239  T      -0.03144097      -0.27567608       0.00472758
O        0.36060665       5.53723174      20.01787822  T      -0.02219637       0.31853053       1.13246725
O        1.53811920       7.68145500      21.03581523  T      -0.46612207      -0.26802476       0.67280598
O        4.76597135       8.47404221      21.91278739  T       0.67544980       0.15958727       0.56778179
O        8.01724942       0.21539518      19.38354545  T      -0.10352452      -0.19638121      -0.27251560
O        6.92458471       8.84549477      23.74771770  T       0.14959074      -0.18010730       0.24805762
O        6.20897353       5.74511762      16.87839711  T       0.35250888       0.23879666       0.34495330
O        5.76785105       0.30391322      18.18304504  T      -0.09572979      -0.28588764       0.14246981
O        8.71152926       5.97742922      17.90924397  T      -0.36392686       0.33435724      -0.02359579
O        6.97949655       7.88033145      18.42480729  T      -0.02694383       0.41797560      -0.22675275
O        2.25688716       4.50941942       3.82167318  T      -1.00315815       1.26390832      -0.28076897
O        1.48017258       2.43106669       2.54630345  T       0.02238897       0.06458951      -1.08442939
O        3.90784722       2.71614975       4.18183931  T      -0.09483323      -0.17555975       0.06374758
O        3.69338906       4.57997412       6.14664119  T      -0.57898282      -1.16417571      -0.54225810
O        1.70686476       2.92655310       5.80583888  T      -0.54722950      -0.12900180       0.21901304
O        4.82730950       1.32281916       5.86866157  T       0.33026771       0.10387204      -0.81355551
O        5.25191892       0.82392708       3.24245940  T      -0.35634324       0.19570914      -0.32921774
O        6.16151738       3.62804327       4.03388523  T       0.07070427      -0.09177551       0.17181515
O        7.07656147       1.34182730       4.63982333  T       0.25664433       0.55890723       0.87119815
O        8.98939038       2.44487660       6.27501304  T       1.29090923      -0.25700573       0.66535194
O        9.55348942       0.42560869       4.70820830  T       0.60760524       0.68324703      -0.10753608
O        0.88180745       9.78930125       2.62525382  T       0.51553605      -0.06635103      -0.63261467
O        1.20568472       8.22158129       4.63663515  T      -1.07295892       0.49026324      -0.58302208
O        9.87000000       6.98000000       2.02000000  F       0.00000000       0.00000000       0.00000000
O        5.16188985       6.16854116       4.53729825  T       0.53728450      -0.51464805       0.33412819
O        5.59000000       5.63000000       2.17000000  F       0.00000000       0.00000000       0.00000000
O        7.78063828       5.79706220       3.62631272  T       0.00408666       0.29863991      -0.15828554
O        5.60841575       8.20403470       2.66011990  T      -0.07164711       0.60936706      -0.89130782
O        8.54776616       8.39124847       3.62968047  T       0.36796462      -0.35002461      -0.43919718
O        3.53448381       4.17728203      11.52540108  T      -0.66194920      -0.12221375      -0.20119248
O        1.14062749       4.88079703      11.35401838  T       0.01077083      -0.37390188       0.17365992
O        1.73276578       0.91395123      10.35553446  T      -0.27655697      -0.24362321       0.59452004
O        2.79056473       3.10680153       9.32123265  T      -0.03205656       0.64444855       0.02002717
O        3.56540507       0.97087469       8.15741546  T      -0.55000265       0.46895928       0.73202933
O        1.06199430       1.65052273       7.93414134  T      -0.37026166      -0.40535211       0.18421979
O        0.43151420       4.16593386       7.88743000  T       0.06419631      -0.13830415      -0.11017811
O        9.27450073       1.31135862      11.42165960  T      -0.62818921       0.05532793      -0.79707119
O        5.93188098       2.56396755       7.78748938  T       0.50558827       0.13363052       0.30401531
O        5.26856617       4.03176667       9.71270231  T       0.30230476       0.10457085       0.15840629
O        7.34717119       2.44629961      10.03168712  T       0.33527111       0.24878830       0.07742973
O        6.80731323       0.18857885      11.31593665  T      -1.29632003      -0.41585858       0.58416968
O        7.51490268       4.84885017       8.95485293  T      -0.22727649      -0.45901139      -0.28105654
O        8.09056754       9.74209787       6.59095788  T      -0.01950466       0.51177878      -0.32511242
O        4.08664996       7.04247800       6.83470578  T       0.64707243      -0.29056583      -0.58265881
O        3.95946575       9.59518332      11.24080792  T       0.42242239      -0.20440701      -0.41608394
O        3.06003938       8.34484671       8.86420900  T      -0.00624989      -0.23454236      -0.25058322
O        1.53699394       6.62961386       7.47170560  T      -0.12316306      -0.45470189       0.03690295
O        3.34857189       5.60530308       9.02313600  T      -0.08666179      -0.12614230       0.53836155
O        0.19066573       6.48450708       9.54050438  T      -0.42808390      -0.29067466       0.37071363
O        2.26363470       7.40323670      11.09136174  T      -0.61110666      -0.66827613       0.47254702
O        4.97429310       7.36871098      10.21294802  T      -0.65155648       0.35447912       0.20036945
O        8.17919706       0.04174940       9.19275685  T      -0.01857594      -0.33829897      -0.69770590
O        7.52093666       7.20856800      11.35897715  T       0.01311571      -0.06844019      -0.49304423
O        6.18543181       5.50196040       6.87974886  T       0.23793106       0.08881485      -0.02267443
O        5.81241905       9.89213444       8.02652307  T       0.07838807      -0.32343678      -0.16995589
O        8.92147737       6.08081811       7.10675948  T      -0.77273543       0.04020001       0.73162729
O        7.26302146       7.67314965       8.17147993  T      -0.31996978       0.12482004       0.06804432
O        3.55000000       4.18000000       1.53000000  F       0.00000000       0.00000000       0.00000000
O        1.14000000       4.89000000       1.35000000  F       0.00000000       0.00000000       0.00000000
O        9.29000000       1.31000000       1.44000000  F       0.00000000       0.00000000       0.00000000
O        6.84000000       0.20000000       1.30000000  F       0.00000000       0.00000000       0.00000000
O        3.95000000       9.60000000       1.25000000  F       0.00000000       0.00000000       0.00000000
O        2.28000000       7.42000000       1.08000000  F       0.00000000       0.00000000       0.00000000
O        7.52000000       7.21000000       1.37000000  F       0.00000000       0.00000000       0.00000000
Si       2.10568303       3.97364134      12.31960199  T       0.42362537      -0.46933019      -0.00860916
Si       2.89541098       3.64494006      15.08249062  T       0.40124148      -0.37256333      -0.58268422
Si       0.88572653       1.15103972      11.75787532  T      -0.35844166       0.05839704      -0.90666977
Si       8.27913978       0.96055220      15.60836142  T       0.70283346       0.82332551      -0.10366611
Si       5.42428098       1.99850265      14.42874969  T       1.12727677       0.67113125      -0.06395930
Si       4.78183888       5.93717519      16.08289505  T      -0.59607647      -1.01419383       0.24358079
Si       0.00608706       9.15267070      13.87090005  T       0.43517141      -0.50842571       0.10965276
Si       6.20484107       5.20854587      13.69156339  T      -0.38033332      -0.14718731      -1.40905233
Si       5.42286983       9.76504222      12.07161044  T       0.16073388      -0.34459342       0.93574311
Si       8.39251289       7.03874195      12.73376114  T       0.17079722      -0.09853506      -0.47615126
Si       3.04660097       4.32308432      20.22365379  T       0.54945488      -0.50673375      -0.43731728
Si       2.12970072       1.50031325      19.11805028  T      -0.75076299      -1.34020597      -0.88153714
Si       0.48225716       2.69150477      16.99201664  T       0.14599266      -0.58057415      -1.38298701
Si       4.92063723       1.59409744      17.67552679  T       0.09562691      -0.44798897      -1.08462968
Si       5.95313896       3.76921221      19.66880485  T       0.21602192      -0.11213763       0.62669004
Si       7.64247141       1.19215597      20.64186687  T       0.92176897       0.91214446      -1.37872042
Si       2.57269546       8.73500215      20.37891447  T       0.17014459       0.35227881      -0.77959264
Si       2.86210793       6.68121971      18.12326295  T       1.55150760       0.82360060       0.25228743
Si       1.08119803       6.15800200      21.41025476  T       0.09577594      -0.19382852      -1.52107308
Si       0.20191479       5.57482626      18.39405480  T      -0.64062389      -0.37856473      -0.38077232
Si       6.20573629       9.26741412      22.46628329  T      -1.84084256      -0.97663220      -0.21582945
Si       7.12970075       6.24323420      18.15575708  T      -0.04961392       0.24908157      -0.29108427
Si       7.17687975       9.51885018      18.12883856  T      -0.19557407      -0.83315721       1.32169455
Si       2.10000000       3.98000000       2.32000000  F       0.00000000       0.00000000       0.00000000
Si       2.92159906       3.64953205       5.03802920  T       0.77701059      -0.04390684       0.52887297
Si       0.89000000       1.15000000       1.77000000  F       0.00000000       0.00000000       0.00000000
Si       8.35065395       1.04470271       5.59894566  T      -0.65441523       0.38293541      -0.06783733
Si       5.42179308       1.98728004       4.43241577  T       0.94171126      -0.20199593       0.15009298
Si       4.78538721       5.78165418       6.07193771  T       0.35655908       1.53313115       0.91530825
Si       0.01145394       9.14570490       3.88446879  T       0.89036138      -1.04323275       1.11960664
Si       6.20569425       5.20484834       3.70062948  T      -0.31827479      -0.42096928      -0.74614556
Si       5.42000000       9.77000000       2.06000000  F       0.00000000       0.00000000       0.00000000
Si       8.39496478       7.04015111       2.74515021  T       0.39389789      -0.00687250       0.36819698
Si       3.71652100       4.28635049       9.89593612  T      -0.21843768      -0.28141555       0.47726753
Si       2.29897597       1.61343434       8.99598995  T       0.62842460      -0.45083744      -1.01100670
Si       0.54315134       2.81552715       6.93947285  T      -1.30867734       0.38142573      -0.02389648
Si       5.02768268       1.19611420       7.45667217  T      -0.17958836       0.47666923       0.46676127
Si       6.58254982       3.44379905       9.03811522  T      -0.53451558       0.29806190      -0.12137726
Si       7.94310424       1.01658556      10.49838493  T       0.87234021      -0.33060788      -0.11496845
Si       3.51310870       8.23296464      10.42030332  T       0.95327196       0.18651863       0.04875820
Si       3.04895127       6.90341143       8.07245489  T      -1.58826058       0.21768839      -0.60465782
Si       0.91908580       6.44485477      10.98061464  T       0.61750611       0.33935471       0.13435946
Si       0.21830284       5.79198470       8.07288628  T       1.41069732       0.15835003      -2.03913375
Si       5.90963037       7.07163967      11.50622585  T      -0.04916994      -0.60841031       1.23830773
Si       7.41626068       6.06619519       7.83480594  T       0.47051120       0.45461978      -1.13231634
Si       7.31971324       9.31507236       7.95242927  T       0.78696281      -0.37159643       1.67759372
Si       7.93000000       1.02000000       0.50000000  F       0.00000000       0.00000000       0.00000000
Si       0.91000000       6.44000000       0.98000000  F       0.00000000       0.00000000       0.00000000
Si       5.91000000       7.08000000       1.49000000  F       0.00000000       0.00000000       0.00000000
C        4.97491795       5.00523850      25.98639597  T      -0.65312951       0.16153630     -13.17255258
F        5.79823934       6.04166594      25.98681059  T       0.27473623       0.46319167     -20.81065041
F        5.80055097       3.95541005      25.98680744  T       0.38635245      -0.60366614     -20.81298696
153
Lattice="10.0 0.0 0.0 0.0 10.0 0.0 0.0 0.0 43.74" Properties=species:S:1:pos:R:3:move_mask:L:1:momenta:R:3 etch=trj_CF2_30eV_case1 idx=0 index=0 source=trj_CF2_30eV_case1/0000/OUTCAR converged=T time_fs=8.0 pbc="T T T"
O        2.26551040       4.50809297      13.83222077  T      -0.54929440       1.06335299       0.12530644
O        1.48376046       2.44449834      12.54888565  T       0.10415950       0.49118872      -0.85080713
O        3.89929415       2.70813308      14.19059695  T      -0.40722253      -0.48732337       0.42376008
O        3.82342560       4.57288927      16.07202461  T       0.06305075       0.41987063       0.43474336
O        1.64403776       2.88584815      15.81321009  T      -0.13698506      -0.12420281       0.84052952
O        5.09008759       1.64431397      16.06692726  T      -0.36584832       0.19199409       0.85827593
O        5.23856232       0.82924659      13.25007257  T      -0.85095635       0.38600823       0.03575856
O        6.15915151       3.62049542      14.03562283  T      -0.03282355      -0.32608470       0.20555893
O        7.07547389       1.33942068      14.63366116  T       0.16976767       0.39664312       0.51584004
O        9.06073815       2.28320306      16.27311451  T      -0.33915533      -0.21180794       0.54680316
O        9.53793216       0.41900351      14.72906998  T       0.02010165       0.24855211       0.63673086
O        0.87909018       9.77347650      12.64343108  T       0.35414076      -0.55364024       0.07145331
O        1.20695246       8.21981975      14.64086901  T      -0.87462076       0.35441192      -0.32739421
O        9.85936292       6.98414481      12.05651176  T      -0.21844345       0.08735451       1.30125868
O        5.16231429       6.18106553      14.54033103  T       0.49945277       0.02987932       0.40653427
O        5.60491216       5.62170418      12.17856750  T       0.55421058      -0.32990323       0.28951344
O        7.78220128       5.79686530      13.63275229  T       0.04635096       0.25981585       0.10333115
O        5.60412347       8.22512080      12.66389920  T      -0.21610129       1.23989704      -0.59902488
O        8.55641350       8.39489792      13.63821273  T       0.61782840      -0.19183033      -0.06544266
O        2.43487167       5.21572420      21.44352856  T      -0.17094053      -0.19423498       0.50352109
O        0.21161057       6.18674008      22.76011675  T      -0.29650384      -0.13334563       0.34440041
O        1.83749513       0.13054974      19.96935647  T       0.28158737       0.37863903       0.38844334
O        2.18038038       2.95195341      19.89721170  T       0.74099616       1.28493769       0.90368251
O        3.44291656       1.25628008      18.20634435  T       0.39162564       0.23741197      -0.09002641
O        0.91554180       1.49590974      18.01511763  T      -0.19597834       0.61166985       0.20767480
O        0.40179715       4.12050620      17.74215992  T       0.07448586       0.23637204       0.41018944
O        9.09086509       1.35173848      21.39761732  T       0.03719242       0.07404202       0.29562132
O        5.41692773       2.96761927      18.36646427  T      -0.08545182       0.33344251      -0.86278635
O        4.61235011       3.96422198      20.62643088  T       0.46301529      -0.21752968      -0.11525275
O        7.10089614       2.68580790      20.22304161  T      -0.34092708       0.23282499       0.51327767
O        6.43821604       0.42155898      21.41660780  T      -0.37738213       0.48108549       0.23704650
O        6.63179296       5.23817858      19.38495012  T      -0.28411085      -0.38897439       0.15441086
O        7.91529781       9.80584813      16.71634293  T       0.49238795       0.16785333      -0.70836766
O        3.85759569       7.03141177      16.86542687  T      -0.43876077      -0.32707372       0.17063692
O        3.71306897       9.42016817      21.42989312  T       0.50302955      -0.01307363      -0.02737292
O        3.20075278       7.95661238      19.09901093  T       0.04816788       0.26147587       0.33325085
O        1.28019792       6.62274972      17.77293017  T      -0.91313949       0.14214952      -0.60746269
O        3.20916269       5.27091133      18.89080382  T      -0.03682672      -0.27220969      -0.01513386
O        0.36036246       5.53928707      20.02501776  T      -0.05965616       0.34986726       1.18648806
O        1.53520824       7.67992436      21.04012611  T      -0.47910994      -0.22605597       0.72916920
O        4.77027415       8.47503451      21.91646514  T       0.72254982       0.16219233       0.62874686
O        8.01661535       0.21413843      19.38180609  T      -0.10196177      -0.21218747      -0.29289592
O        6.92545668       8.84436034      23.74915731  T       0.13230498      -0.18873438       0.21749032
O        6.21117229       5.74668736      16.88058059  T       0.36121927       0.27242978       0.36447564
O        5.76722871       0.30202964      18.18398239  T      -0.10687462      -0.32766945       0.16282086
O        8.70919448       5.97960612      17.90910955  T      -0.39523397       0.37423847      -0.01977536
O        6.97931225       7.88296007      18.42334429  T      -0.03326986       0.43554715      -0.24917053
O        2.25041734       4.51754344       3.82000418  T      -1.10186716       1.37863929      -0.25995542
O        1.48034728       2.43152076       2.53920694  T       0.03514150       0.08401228      -1.22637915
O        3.90723338       2.71500226       4.18221932  T      -0.10491365      -0.19805299       0.05925706
O        3.68991955       4.57273004       6.14323352  T      -0.54482178      -1.18754193      -0.56397983
O        1.70338000       2.92576088       5.80718688  T      -0.58566224      -0.12794411       0.21834803
O        4.82946104       1.32345278       5.86362974  T       0.37005640       0.10153194      -0.81934289
O        5.24961312       0.82523756       3.24033454  T      -0.39389014       0.23162917      -0.36207935
O        6.16198285       3.62743750       4.03499793  T       0.08093902      -0.10563415       0.19023723
O        7.07815675       1.34551999       4.64545485  T       0.26093820       0.64436204       0.96100403
O        8.99772506       2.44314972       6.27932167  T       1.42011654      -0.30639198       0.73645570
O        9.55744358       0.43002545       4.70746034  T       0.67930915       0.75401193      -0.13679289
O        0.88513807       9.78880543       2.62118863  T       0.56824712      -0.09625147      -0.68976360
O        1.19875099       8.22470363       4.63288274  T      -1.18241350       0.52412782      -0.63712417
O        9.87000000       6.98000000       2.02000000  F       0.00000000       0.00000000       0.00000000
O        5.16539297       6.16519106       4.53948634  T       0.60315321      -0.57587881       0.37843799
O        5.59000000       5.63000000       2.17000000  F       0.00000000       0.00000000       0.00000000
O        7.78061836       5.79896995       3.62529629  T      -0.01154546       0.32155642      -0.17229107
O        5.60794885       8.20795687       2.65432376  T      -0.08033323       0.66622517      -0.99519908
O        8.55019761       8.38905425       3.62686924  T       0.42422990      -0.36237593      -0.47486151
O        3.53024473       4.17648658      11.52410330  T      -0.71633594      -0.13670499      -0.22092256
O        1.14066583       4.87843604      11.35513672  T       0.00109903      -0.39320929       0.19017080
O        1.73105600       0.91241295      10.35921270  T      -0.27816928      -0.25634972       0.59897085
O        2.79025241       3.11079890       9.32129779  T      -0.07153870       0.65314413      -0.00009550
O        3.56203266       0.97388493       8.16208057  T      -0.54311390       0.50981500       0.78426232
O        1.05956530       1.64792199       7.93533824  T      -0.42075228      -0.44046644       0.20538732
O        0.43192561       4.16511842       7.88672195  T       0.06962283      -0.12535654      -0.12015986
O        9.27054660       1.31170919      11.41652603  T      -0.65587422       0.05863969      -0.87267504
O        5.93511921       2.56475473       7.78940764  T       0.54743064       0.12097664       0.31918638
O        5.27038539       4.03249316       9.71380260  T       0.28714101       0.13277034       0.20114413
O        7.34937654       2.44785727      10.03219179  T       0.38299450       0.25710105       0.08674894
O        6.79918727       0.18604341      11.31950205  T      -1.34285914      -0.40638131       0.57197754
O        7.51342675       4.84593897       8.95293151  T      -0.25308139      -0.48714116      -0.34621150
O        8.09036109       9.74537235       6.58898794  T      -0.04912416       0.55307092      -0.31337724
O        4.09066780       7.04068924       6.83110967  T       0.65661389      -0.28902670      -0.58387393
O        3.96221057       9.59387789      11.23809428  T       0.47098120      -0.21988566      -0.46731293
O        3.05998319       8.34331396       8.86259666  T      -0.01237120      -0.26452255      -0.27381547
O        1.53621800       6.62668139       7.47186233  T      -0.12872329      -0.49906748       0.01199611
O        3.34796565       5.60463461       9.02654754  T      -0.11153025      -0.08863742       0.57044736
O        0.18786793       6.48253667       9.54273988  T      -0.48263521      -0.35216405       0.35386969
O        2.25988683       7.39904386      11.09437292  T      -0.60429348      -0.69342476       0.50656458
O        4.97015613       7.37094460      10.21437751  T      -0.69281020       0.37087164       0.26743233
O        8.17911657       0.03961153       9.18836687  T      -0.00645391      -0.35613223      -0.72785922
O        7.52096886       7.20811385      11.35577429  T      -0.00365940      -0.07961125      -0.54927818
O        6.18696828       5.50254064       6.87957956  T       0.26192925       0.10013558      -0.03288907
O        5.81287689       9.89008383       8.02539141  T       0.06978094      -0.34300996      -0.19891311
O        8.91657401       6.08108663       7.11147705  T      -0.82010244       0.04736609       0.80286258
O        7.26092644       7.67392918       8.17192622  T      -0.36224628       0.12818103       0.07731806
O        3.55000000       4.18000000       1.53000000  F       0.00000000       0.00000000       0.00000000
O        1.14000000       4.89000000       1.35000000  F       0.00000000       0.00000000       0.00000000
O        9.29000000       1.31000000       1.44000000  F       0.00000000       0.00000000       0.00000000
O        6.84000000       0.20000000       1.30000000  F       0.00000000       0.00000000       0.00000000
O        3.95000000       9.60000000       1.25000000  F       0.00000000       0.00000000       0.00000000
O        2.28000000       7.42000000       1.08000000  F       0.00000000       0.00000000       0.00000000
O        7.52000000       7.21000000       1.37000000  F       0.00000000       0.00000000       0.00000000
Si       2.10722473       3.97193768      12.31959699  T       0.45604390      -0.50266468       0.00691374
Si       2.89687042       3.64358854      15.08034074  T       0.43158349      -0.39849482      -0.64534629
Si       0.88437405       1.15123174      11.75456614  T      -0.41525447       0.05048322      -0.98237740
Si       8.28172519       0.96359382      15.60800507  T       0.77364633       0.91412547      -0.09889839
Si       5.42846204       2.00099171      14.42854772  T       1.26186219       0.75113910      -0.05031319
Si       4.77968043       5.93341452      16.08381485  T      -0.63533632      -1.13446224       0.28261242
Si       0.00765406       9.15085872      13.87134305  T       0.45864858      -0.52437013       0.14438905
Si       6.20346084       5.20796398      13.68639410  T      -0.40712114      -0.18671196      -1.54214203
Si       5.42339117       9.76382277      12.07510145  T       0.13416849      -0.34938777       1.05976015
Si       8.39311516       7.03837787      12.73201312  T       0.17213332      -0.10942054      -0.52203948
Si       3.04867348       4.32125296      20.22210101  T       0.63637323      -0.53758150      -0.44743000
Si       2.12698428       1.49555116      19.11483666  T      -0.79890909      -1.37475406      -0.95341125
Si       0.48276296       2.68944188      16.98692859  T       0.14165511      -0.59536082      -1.52272538
Si       4.92103867       1.59245470      17.67157459  T       0.13530627      -0.49005493      -1.17050645
Si       5.95390738       3.76874515      19.67105616  T       0.22199169      -0.15642023       0.65708453
Si       7.64582610       1.19548978      20.63680915  T       0.99304807       0.99116982      -1.50934166
Si       2.57328232       8.73626635      20.37612557  T       0.16372843       0.36885148      -0.81030181
Si       2.86766863       6.68420845      18.12419830  T       1.61988576       0.88189421       0.28253498
Si       1.08155404       6.15724735      21.40466685  T       0.10776927      -0.23841567      -1.66908800
Si       0.19953783       5.57345628      18.39273011  T      -0.71751173      -0.40290359      -0.37360395
Si       6.19899333       9.26381949      22.46555998  T      -2.00873445      -1.07557878      -0.19518855
Si       7.12948829       6.24415210      18.15472546  T      -0.07287980       0.27525473      -0.29658896
Si       7.17620159       9.51581074      18.13357370  T      -0.19071887      -0.90175083       1.37869518
Si       2.10000000       3.98000000       2.32000000  F       0.00000000       0.00000000       0.00000000
Si       2.92433268       3.64935382       5.03987860  T       0.77969313      -0.05902029       0.52388634
Si       0.89000000       1.15000000       1.77000000  F       0.00000000       0.00000000       0.00000000
Si       8.34832151       1.04613308       5.59871254  T      -0.67451786       0.43455637      -0.06454273
Si       5.42529681       1.98654593       4.43292823  T       1.06071914      -0.21682970       0.14110819
Si       4.78665415       5.78715682       6.07529649  T       0.36662268       1.60484227       1.00216956
Si       0.01473343       9.14193213       3.88859293  T       0.98220980      -1.10874034       1.23568095
Si       6.20453698       5.20327132       3.69785600  T      -0.34216034      -0.48075974      -0.83880900
Si       5.42000000       9.77000000       2.06000000  F       0.00000000       0.00000000       0.00000000
Si       8.39642794       7.04010486       2.74647378  T       0.44227190      -0.02033215       0.38654899
Si       3.71576599       4.28531542       9.89771260  T      -0.21141272      -0.30961133       0.53780255
Si       2.30121254       1.61183593       8.99234095  T       0.64554934      -0.45975372      -1.07052147
Si       0.53832767       2.81688400       6.93940467  T      -1.44594106       0.39190899      -0.01417467
Si       5.02702347       1.19787415       7.45834391  T      -0.19659832       0.52858253       0.48668955
Si       6.58062546       3.44490185       9.03769596  T      -0.56296288       0.33194724      -0.11695373
Si       7.94617019       1.01530156      10.49796235  T       0.87372615      -0.40466223      -0.12702267
Si       3.51655916       8.23360977      10.42050635  T       1.01541645       0.18073492       0.06771932
Si       3.04314064       6.90416641       8.07020741  T      -1.72899733       0.21204437      -0.67941968
Si       0.92127015       6.44606085      10.98119555  T       0.62690746       0.34753822       0.19985447
Si       0.22348993       5.79256710       8.06542985  T       1.55099165       0.17376715      -2.21784911
Si       5.90942800       7.06944061      11.51077388  T      -0.06710101      -0.64592167       1.35894025
Si       7.41797423       6.06784619       7.83067941  T       0.50701168       0.48764887      -1.22290677
Si       7.32264469       9.31371080       7.95855030  T       0.88788147      -0.40597535       1.81625852
Si       7.93000000       1.02000000       0.50000000  F       0.00000000       0.00000000       0.00000000
Si       0.91000000       6.44000000       0.98000000  F       0.00000000       0.00000000       0.00000000
Si       5.91000000       7.08000000       1.49000000  F       0.00000000       0.00000000       0.00000000
C        4.96970162       5.00659697      25.87866063  T      -0.61583357       0.16974473     -13.17467566
F        5.79961178       6.04408350      25.87921471  T       0.25305799       0.46911264     -20.81038950
F        5.80251744       3.95224952      25.87919698  T       0.37063110      -0.61498306     -20.81355529
153
Lattice="10.0 0.0 0.0 0.0 10.0 0.0 0.0 0.0 43.74" Properties=species:S:1:pos:R:3:move_mask:L:1:momenta:R:3 etch=trj_CF2_30eV_case1 idx=0 index=0 source=trj_CF2_30eV_case1/0000/OUTCAR converged=T time_fs=9.0 pbc="T T T"
O        2.26199296       4.51489718      13.83308564  T      -0.59526307       1.15052600       0.15701097
O        1.48436389       2.44754728      12.54335467  T       0.09107930       0.49925284      -0.95039459
O        3.89668598       2.70494870      14.19334482  T      -0.44140815      -0.55005356       0.47089346
O        3.82371625       4.57545806      16.07477487  T       0.02943458       0.41365717       0.45963768
O        1.64331318       2.88510673      15.81852032  T      -0.09589821      -0.11614160       0.88586244
O        5.08776171       1.64559051      16.07214444  T      -0.39067607       0.22422272       0.83412390
O        5.23304931       0.83177553      13.25035317  T      -0.94410159       0.43784947       0.05634587
O        6.15894005       3.61846599      14.03692465  T      -0.03601736      -0.33317344       0.21771817
O        7.07650340       1.34202571      14.63696402  T       0.16442682       0.45215965       0.55901951
O        9.05858341       2.28192330      16.27669770  T      -0.36180790      -0.20325089       0.62057001
O        9.53821818       0.42045631      14.73301561  T       0.07549018       0.22229303       0.64528588
O        0.88137125       9.77004476      12.64379694  T       0.38824091      -0.56129542       0.04619719
O        1.20135604       8.22205372      14.63880822  T      -0.94611605       0.37163624      -0.34235125
O        9.85825615       6.98459700      12.06472253  T      -0.13710380       0.05818231       1.36892863
O        5.16556936       6.18123606      14.54295643  T       0.56084464       0.02510472       0.44806213
O        5.60843738       5.61956638      12.18035189  T       0.59225574      -0.36616220       0.28944394
O        7.78243637       5.79852918      13.63340988  T       0.02904845       0.28164082       0.11047838
O        5.60275334       8.23288686      12.66009234  T      -0.22938679       1.28321833      -0.63877523
O        8.56035887       8.39366977      13.63779498  T       0.66564866      -0.20789280      -0.07056861
O        2.43381680       5.21442630      21.44673337  T      -0.17160169      -0.22904791       0.53888839
O        0.20975504       6.18586869      22.76224714  T      -0.30638210      -0.15055496       0.34725833
O        1.83929481       0.13294260      19.97190107  T       0.30399139       0.39958396       0.44060677
O        2.18506481       2.95971864      19.90281431  T       0.78199248       1.23505704       0.91703762
O        3.44527147       1.25779970      18.20584347  T       0.37237583       0.25708169      -0.07183775
O        0.91423731       1.49984236      18.01646653  T      -0.22955731       0.66833543       0.23145177
O        0.40228246       4.12177300      17.74471235  T       0.08348395       0.17232827       0.41944264
O        9.09110867       1.35222624      21.39952041  T       0.04209504       0.08492600       0.32376415
O        5.41642968       2.96982142      18.36098030  T      -0.07582100       0.38404948      -0.92123834
O        4.61530474       3.96283024      20.62572632  T       0.49812322      -0.23537294      -0.11350627
O        7.09872167       2.68731906      20.22636061  T      -0.36641755       0.25923353       0.56732140
O        6.43590421       0.42469637      21.41811646  T      -0.37337122       0.54027133       0.25415901
O        6.63001688       5.23578319      19.38588588  T      -0.29312381      -0.38890595       0.14922942
O        7.91832475       9.80684403      16.71208255  T       0.49098344       0.15520147      -0.67432506
O        3.85484247       7.02931471      16.86645505  T      -0.45599581      -0.35535612       0.16257612
O        3.71630796       9.42005175      21.42968169  T       0.55140177      -0.02540050      -0.04199080
O        3.20109722       7.95830194      19.10112608  T       0.06466784       0.28845959       0.35449873
O        1.27465859       6.62371509      17.76910109  T      -0.88561788       0.17263947      -0.63754796
O        3.20892015       5.26928351      18.89063583  T      -0.04215393      -0.25563965      -0.04057413
O        0.35984945       5.54151509      20.03237590  T      -0.10996532       0.37457759       1.20335127
O        1.53226671       7.67872475      21.04474517  T      -0.47619218      -0.16041179       0.77323496
O        4.77480330       8.47601757      21.92049111  T       0.74863264       0.15633933       0.68098161
O        8.01600868       0.21279848      19.37996155  T      -0.09453293      -0.22342206      -0.30671598
O        6.92618735       8.84318319      23.75035497  T       0.10361288      -0.19424468       0.16955121
O        6.21338277       5.74846120      16.88285325  T       0.35628111       0.30521434       0.37394964
O        5.76653990       0.29989035      18.18504356  T      -0.11740969      -0.36911876       0.18276025
O        8.70669128       5.98201868      17.90900542  T      -0.41864954       0.41106563      -0.01372996
O        6.97908612       7.88565022      18.42175473  T      -0.04058802       0.43782909      -0.26792410
O        2.24338335       4.52630746       3.81850961  T      -1.18695502       1.47230421      -0.22433886
O        1.48061070       2.43210560       2.53125458  T       0.05133586       0.10723946      -1.36311149
O        3.90656120       2.71371992       4.18255888  T      -0.11383416      -0.21946044       0.05057673
O        3.68676361       4.56547418       6.13975672  T      -0.47709494      -1.16820432      -0.56452174
O        1.69969668       2.92499358       5.80850235  T      -0.61194756      -0.12089068       0.20849756
O        4.83184744       1.32405577       5.85866401  T       0.40669905       0.09393041      -0.79221199
O        5.24709189       0.82677569       3.23802264  T      -0.42643534       0.26983830      -0.39011730
O        6.16251142       3.62674523       4.03621671  T       0.09126405      -0.11997935       0.20632536
O        7.07974360       1.34974318       4.65159909  T       0.25380367       0.73172448       1.03803715
O        9.00678349       2.44110511       6.28403670  T       1.52602466      -0.36060340       0.79745596
O        9.56181751       0.43485193       4.70652222  T       0.74411880       0.81676934      -0.16937440
O        0.88877306       9.78810876       2.61680302  T       0.61472081      -0.13167113      -0.73706655
O        1.19120252       8.22798699       4.62883639  T      -1.27264637       0.54226877      -0.67840178
O        9.87000000       6.98000000       2.02000000  F       0.00000000       0.00000000       0.00000000
O        5.16928837       6.16147823       4.54194279  T       0.66502360      -0.63275371       0.42151598
O        5.59000000       5.63000000       2.17000000  F       0.00000000       0.00000000       0.00000000
O        7.78048647       5.80099729       3.62420266  T      -0.03240135       0.33752826      -0.18341969
O        5.60743059       8.21219290       2.64791728  T      -0.08835941       0.71137661      -1.08993999
O        8.55297621       8.38682372       3.62386750  T       0.48095407      -0.36175790      -0.50119539
O        3.52571561       4.17560559      11.52269544  T      -0.75625853      -0.15006024      -0.23695427
O        1.14063482       4.87598920      11.35634872  T      -0.01178473      -0.40187914       0.20418915
O        1.72937321       0.91081460      10.36284095  T      -0.26775580      -0.26329123       0.57825270
O        2.78966803       3.11477587       9.32121858  T      -0.12052127       0.63806303      -0.02692795
O        3.55879354       0.97711507       8.16700965  T      -0.50633061       0.54040956       0.81782528
O        1.05683073       1.64512864       7.93666036  T      -0.46973318      -0.46805502       0.22500983
O        0.43236715       4.16441484       7.88595759  T       0.07402889      -0.10187562      -0.12855977
O        9.26648958       1.31207638      11.41097104  T      -0.66147823       0.06076411      -0.93415444
O        5.93858375       2.56543458       7.79139146  T       0.57927534       0.09872284       0.32538054
O        5.27206049       4.03340358       9.71518346  T       0.25558678       0.16439780       0.24974419
O        7.35187210       2.44944121      10.03274965  T       0.42970269       0.25740986       0.09467206
O        6.79090432       0.18362578      11.32290662  T      -1.34764330      -0.37767823       0.53198336
O        7.51179965       4.84289094       8.95058828  T      -0.27649350      -0.50358776      -0.41837611
O        8.08995086       9.74887047       6.58714243  T      -0.08575274       0.58466300      -0.28470558
O        4.09465889       7.03896259       6.82758703  T       0.63819423      -0.27000050      -0.55869336
O        3.96524130       9.59249370      11.23507614  T       0.51553631      -0.22994975      -0.51519510
O        3.05988419       8.34160118       8.86085570  T      -0.02020084      -0.29316092      -0.29240037
O        1.53542308       6.62350222       7.47182939  T      -0.12920407      -0.53484539      -0.02515758
O        3.34719527       5.60424411       9.03011521  T      -0.14010316      -0.03582798       0.58931790
O        0.18474743       6.48017355       9.54481375  T      -0.53299124      -0.41847178       0.31837838
O        2.25627061       7.39476452      11.09756396  T      -0.56827639      -0.69646587       0.53123144
O        4.96582046       7.37324080      10.21625336  T      -0.71611066       0.37467981       0.34568839
O        8.17913121       0.03739755       9.18386697  T       0.01265004      -0.36295423      -0.73322867
O        7.52088141       7.20758922      11.35224378  T      -0.02579853      -0.09141756      -0.59962882
O        6.18864115       5.50318936       6.87934077  T       0.28232238       0.11113202      -0.04531123
O        5.81326662       9.88793843       8.02407852  T       0.05635392      -0.35432816      -0.22894517
O        8.91145566       6.08140071       7.11659322  T      -0.84223596       0.05505027       0.86122171
O        7.25857614       7.67471373       8.17242920  T      -0.40309053       0.12640120       0.08652009
O        3.55000000       4.18000000       1.53000000  F       0.00000000       0.00000000       0.00000000
O        1.14000000       4.89000000       1.35000000  F       0.00000000       0.00000000       0.00000000
O        9.29000000       1.31000000       1.44000000  F       0.00000000       0.00000000       0.00000000
O        6.84000000       0.20000000       1.30000000  F       0.00000000       0.00000000       0.00000000
O        3.95000000       9.60000000       1.25000000  F       0.00000000       0.00000000       0.00000000
O        2.28000000       7.42000000       1.08000000  F       0.00000000       0.00000000       0.00000000
O        7.52000000       7.21000000       1.37000000  F       0.00000000       0.00000000       0.00000000
Si       2.10886113       3.97013872      12.31965748  T       0.47756756      -0.52365233       0.02894778
Si       2.89841939       3.64216347      15.07798465  T       0.45232205      -0.41448089      -0.70049493
Si       0.88282026       1.15138746      11.75102292  T      -0.47350394       0.03764759      -1.04045333
Si       8.28453956       0.96693487      15.60767677  T       0.83362345       0.99430505      -0.08760986
Si       5.43309697       2.00375028      14.42840468  T       1.38665648       0.82513125      -0.03033029
Si       4.77741189       5.92925121      16.08487305  T      -0.65890598      -1.24415847       0.32267170
Si       0.00928214       9.14902258      13.87191342  T       0.47009571      -0.52218557       0.18218917
Si       6.20200427       5.20723300      13.68080592  T      -0.42384947      -0.23247523      -1.64800807
Si       5.42378910       9.76261943      12.07901817  T       0.09002898      -0.33480808       1.17894693
Si       8.39370826       7.03797807      12.73011773  T       0.16553474      -0.11892124      -0.56039474
Si       3.05105669       4.31934180      20.22054280  T       0.72722185      -0.55212038      -0.44038900
Si       2.12413433       1.49074334      19.11139669  T      -0.82699988      -1.36684294      -1.01111573
Si       0.48323858       2.68736140      16.98138858  T       0.12868236      -0.59080887      -1.64109670
Si       4.92159134       1.59067741      17.66736924  T       0.18196909      -0.52490541      -1.22885523
Si       5.95468379       3.76810984      19.67337970  T       0.22065400      -0.20819851       0.66788438
Si       7.64939716       1.19907090      20.63133381  T       1.04550444       1.05349266      -1.61733378
Si       2.57383090       8.73757220      20.37327547  T       0.14832167       0.37624290      -0.81447447
Si       2.87339040       6.68736744      18.12523940  T       1.64385871       0.92091065       0.31288821
Si       1.08195208       6.15633090      21.39861202  T       0.11997141      -0.28608537      -1.78740191
Si       0.19690276       5.57201956      18.39145878  T      -0.78804272      -0.41664220      -0.35061196
Si       6.19172375       9.25991196      22.46493242  T      -2.14142409      -1.15486623      -0.16133049
Si       7.12918498       6.24515634      18.15369584  T      -0.10160607       0.29843966      -0.28985555
Si       7.17555387       9.51256144      18.13844000  T      -0.17838147      -0.95299636       1.39686187
Si       2.10000000       3.98000000       2.32000000  F       0.00000000       0.00000000       0.00000000
Si       2.92701489       3.64911266       5.04166572  T       0.74756827      -0.08010320       0.49327238
Si       0.89000000       1.15000000       1.77000000  F       0.00000000       0.00000000       0.00000000
Si       8.34596510       1.04773917       5.59849989  T      -0.66777199       0.48320202      -0.05602289
Si       5.42920561       1.98576923       4.43339205  T       1.17315899      -0.22625858       0.12228335
Si       4.78794580       5.79282928       6.07892803  T       0.37126423       1.63018336       1.07091641
Si       0.01830704       9.13798208       3.89309364  T       1.05807084      -1.14423959       1.33461828
Si       6.20330880       5.20148601       3.69476853  T      -0.35877933      -0.54002332      -0.92552948
Si       5.42000000       9.77000000       2.06000000  F       0.00000000       0.00000000       0.00000000
Si       8.39805533       7.04000449       2.74784156  T       0.48777563      -0.03781135       0.39343182
Si       3.71505246       4.28419016       9.89969259  T      -0.19500983      -0.33287392       0.59335189
Si       2.30346114       1.61023881       8.98853187  T       0.63486339      -0.45000168      -1.10245232
Si       0.53306083       2.81825366       6.93937946  T      -1.56140853       0.38880654       0.00083012
Si       5.02631251       1.19980441       7.46006219  T      -0.20900507       0.57390533       0.49350055
Si       6.57862929       3.44611719       9.03730571  T      -0.57553064       0.36234191      -0.10469135
Si       7.94917401       1.01374986      10.49749348  T       0.83680110      -0.48337737      -0.14174718
Si       3.52018538       8.23421956      10.42077860  T       1.05366831       0.16644517       0.08812044
Si       3.03688994       6.90488339       8.06770970  T      -1.83959728       0.19608615      -0.74746232
Si       0.92344350       6.44726882      10.98202317  T       0.61118642       0.34021792       0.27497593
Si       0.22912394       5.79319387       8.05741349  T       1.66562565       0.18339453      -2.35906570
Si       5.90915797       7.06714056      11.51571070  T      -0.08780237      -0.66597935       1.46046211
Si       7.41979233       6.06959559       7.82627864  T       0.52989549       0.51090539      -1.28890647
Si       7.32591372       9.31223836       7.96509555  T       0.97942945      -0.43506721       1.91982167
Si       7.93000000       1.02000000       0.50000000  F       0.00000000       0.00000000       0.00000000
Si       0.91000000       6.44000000       0.98000000  F       0.00000000       0.00000000       0.00000000
Si       5.91000000       7.08000000       1.49000000  F       0.00000000       0.00000000       0.00000000
C        4.96493304       5.00800205      25.77091040  T      -0.54425099       0.17295038     -13.17619049
F        5.80083089       6.04649370      25.77161865  T       0.21577539       0.46068594     -20.81079804
F        5.80435292       3.94908367      25.77158477  T       0.33602181      -0.60597037     -20.81357046
153
Lattice="10.0 0.0 0.0 0.0 10.0 0.0 0.0 0.0 43.74" Properties=species:S:1:pos:R:3:move_mask:L:1:momenta:R:3 etch=trj_CF2_30eV_case1 idx=0 index=0 source=trj_CF2_30eV_case1/0000/OUTCAR converged=T time_fs=10.0 pbc="T T T"
O        2.25821439       4.52219261      13.83415396  T      -0.63430170       1.22320799       0.19143210
O        1.48486534       2.45060053      12.53722189  T       0.07097342       0.49263392      -1.04671777
O        3.89388466       2.70137864      14.19637359  T      -0.47006147      -0.61291277       0.51514597
O        3.82376443       4.57793450      16.07765285  T      -0.01594479       0.38967756       0.47634645
O        1.64289278       2.88443392      15.82405148  T      -0.03785882      -0.10189485       0.91233013
O        5.08530229       1.64707093      16.07709606  T      -0.40932637       0.25837633       0.77170626
O        5.22697867       0.83462293      13.25077114  T      -1.03250190       0.48965367       0.08041626
O        6.15870966       3.61642342      14.03828776  T      -0.03899660      -0.33032354       0.22547228
O        7.07748165       1.34497447      14.64051466  T       0.15323305       0.50853331       0.59658551
O        9.05630495       2.28072604      16.28073531  T      -0.37952748      -0.18494810       0.69471562
O        9.53888274       0.42171004      14.73696101  T       0.14316440       0.18404589       0.63691747
O        0.88384982       9.76661409      12.64398343  T       0.41836836      -0.55343115       0.01318409
O        1.19536005       8.22436497      14.63668202  T      -1.00454521       0.37940454      -0.34855765
O        9.85772841       6.98484193      12.07327585  T      -0.03027310       0.01999988       1.41308910
O        5.16920025       6.18136756      14.54582582  T       0.62185878       0.01708017       0.48592618
O        5.61216431       5.61721170      12.18209656  T       0.61975653      -0.40050536       0.27631516
O        7.78254591       5.80031779      13.63410444  T       0.00547273       0.30043951       0.11531596
O        5.60131582       8.24080611      12.65608072  T      -0.23797672       1.28931171      -0.66543484
O        8.56456849       8.39234866      13.63734673  T       0.70378030      -0.22214270      -0.07542669
O        2.43277570       5.21290704      21.45012919  T      -0.16645326      -0.26628498       0.56568755
O        0.20786481       6.18489095      22.76435657  T      -0.30773409      -0.16800103       0.33750912
O        1.84122094       0.13544374      19.97476778  T       0.32277767       0.41400823       0.49330931
O        2.18995142       2.96702389      19.90842919  T       0.80677959       1.13574801       0.90803208
O        3.44745857       1.25943136      18.20547475  T       0.33729133       0.27390701      -0.04714951
O        0.91271669       1.50410519      18.01795625  T      -0.26643744       0.71920500       0.25345028
O        0.40282064       4.12258435      17.74729251  T       0.09163441       0.08857118       0.41942999
O        9.09138115       1.35278210      21.40158686  T       0.04656346       0.09622715       0.34877554
O        5.41600645       2.97233535      18.35517663  T      -0.06112165       0.43480140      -0.96699980
O        4.61845238       3.96133660      20.62504502  T       0.52581506      -0.25071364      -0.10762225
O        7.09640746       2.68898867      20.23000163  T      -0.38638072       0.28439233       0.61813694
O        6.43365456       0.42818439      21.41972692  T      -0.35728356       0.59496061       0.27037347
O        6.62820717       5.23342769      19.38677063  T      -0.29510496      -0.37606659       0.13785324
O        7.92130066       9.80774096      16.70811268  T       0.47604190       0.13583603      -0.61432211
O        3.85201851       7.02705555      16.86740510  T      -0.46174704      -0.37986443       0.14511226
O        3.71983271       9.41985071      21.42937267  T       0.59613166      -0.04062200      -0.05912456
O        3.20155355       7.96014933      19.10335025  T       0.08465879       0.31279466       0.36865337
O        1.26937805       6.62487174      17.76512568  T      -0.82959516       0.20424232      -0.65510503
O        3.20864552       5.26779635      18.89029639  T      -0.04724643      -0.22655282      -0.07080201
O        0.35898571       5.54387180      20.03971997  T      -0.17405435       0.39160114       1.18172496
O        1.52938988       7.67799680      21.04959790  T      -0.45824377      -0.07283720       0.80539517
O        4.77942090       8.47693560      21.92480783  T       0.75085433       0.14078347       0.72322937
O        8.01546635       0.21140436      19.37805294  T      -0.08097225      -0.22978676      -0.31373964
O        6.92670843       8.84197980      23.75120905  T       0.06425499      -0.19731861       0.10587120
O        6.21552082       5.75043273      16.88515276  T       0.33765588       0.33674810       0.37321615
O        5.76578786       0.29749864      18.18622525  T      -0.12751016      -0.40980530       0.20203262
O        8.70407021       5.98464725      17.90894513  T      -0.43353540       0.44456059      -0.00551585
O        6.97881174       7.88830532      18.42006196  T      -0.04901161       0.42402255      -0.28274586
O        2.23586827       4.53558109       3.81727336  T      -1.25865179       1.54462446      -0.17629856
O        1.48098459       2.43284528       2.52248030  T       0.07114990       0.13448235      -1.49401220
O        3.90583779       2.71230988       4.18283255  T      -0.12160936      -0.23961638       0.03782981
O        3.68412188       4.55846409       6.13634405  T      -0.37780755      -1.10796793      -0.54302821
O        1.69588841       2.92428769       5.80973058  T      -0.62647183      -0.10798129       0.19007422
O        4.83444827       1.32459663       5.85396212  T       0.43986226       0.08137334      -0.73382151
O        5.24438724       0.82855490       3.23555368  T      -0.45357261       0.31010529      -0.41324300
O        6.16310367       3.62596311       4.03752646  T       0.10168003      -0.13492355       0.21982648
O        7.08125077       1.35450849       4.65817502  T       0.23497738       0.82093583       1.10151695
O        9.01641196       2.43871161       6.28909148  T       1.60516243      -0.42013505       0.84685629
O        9.56656528       0.44004002       4.70537538  T       0.80087892       0.87190616      -0.20464860
O        0.89267481       9.78717936       2.61215605  T       0.65520854      -0.17190271      -0.77502376
O        1.18316711       8.23132717       4.62458124  T      -1.34041430       0.54214933      -0.70473700
O        9.87000000       6.98000000       2.02000000  F       0.00000000       0.00000000       0.00000000
O        5.17355076       6.15743024       4.54465938  T       0.72266482      -0.68501485       0.46312597
O        5.59000000       5.63000000       2.17000000  F       0.00000000       0.00000000       0.00000000
O        7.78021059       5.80310062       3.62304963  T      -0.05841591       0.34627235      -0.19164644
O        5.60686530       8.21666725       2.64095969  T      -0.09563966       0.74365649      -1.17454535
O        8.55610313       8.38463766       3.62073334  T       0.53757036      -0.34787470      -0.51798207
O        3.52098775       4.17464630      11.52120181  T      -0.78096551      -0.16220119      -0.24875908
O        1.14051543       4.87352126      11.35763945  T      -0.02762996      -0.40016557       0.21585108
O        1.72779096       0.90918991      10.36626580  T      -0.24549353      -0.26505511       0.53289148
O        2.78875636       3.11859174       9.32095526  T      -0.17790404       0.60111673      -0.05993591
O        3.55587429       0.98049947       8.17208554  T      -0.43887832       0.55995647       0.83201707
O        1.05380100       1.64218939       7.93809814  T      -0.51682871      -0.48798054       0.24305751
O        0.43283288       4.16388711       7.88514589  T       0.07752987      -0.06817999      -0.13563839
O        9.26246829       1.31245330      11.40508415  T      -0.64414243       0.06183489      -0.98067379
O        5.94221298       2.56594951       7.79338623  T       0.60110963       0.06738971       0.32283464
O        5.27349545       4.03451726       9.71687953  T       0.20930202       0.19884793       0.30369399
O        7.35464984       2.45100364      10.03335067  T       0.47480018       0.25022784       0.10071145
O        6.78271629       0.18144017      11.32598405  T      -1.31240378      -0.33110730       0.46581240
O        7.51003646       4.83977742       8.94778190  T      -0.29739647      -0.50854159      -0.49694722
O        8.08929634       9.75253356       6.58552260  T      -0.12850927       0.60691469      -0.24011012
O        4.09844984       7.03741025       6.82429948  T       0.59144268      -0.23204760      -0.50745338
O        3.96853306       9.59106583      11.23177540  T       0.55600629      -0.23401139      -0.55928747
O        3.05973190       8.33971708       8.85901595  T      -0.02971761      -0.32029573      -0.30592177
O        1.53464265       6.62013262       7.47152719  T      -0.12386575      -0.56089691      -0.07596786
O        3.34623864       5.60422100       9.03375995  T      -0.17214672       0.03067294       0.59574870
O        0.18133357       6.47739049       9.54661740  T      -0.57796996      -0.48879198       0.26629493
O        2.25296342       7.39053347      11.10087921  T      -0.50388028      -0.67785331       0.54716723
O        4.96139883       7.37551953      10.21864253  T      -0.72070909       0.36504483       0.43448950
O        8.17928760       0.03517703       9.17941331  T       0.03993515      -0.35818134      -0.71263884
O        7.52064270       7.20698993      11.34842419  T      -0.05281388      -0.10394958      -0.64329796
O        6.19042772       5.50390475       6.87901904  T       0.29894865       0.12186767      -0.05988527
O        5.81356150       9.88574840       8.02257864  T       0.03909875      -0.35762545      -0.25976453
O        8.90628562       6.08176372       7.12202488  T      -0.83648742       0.06331848       0.90540010
O        7.25597998       7.67547101       8.17298854  T      -0.44229403       0.11927302       0.09568491
O        3.55000000       4.18000000       1.53000000  F       0.00000000       0.00000000       0.00000000
O        1.14000000       4.89000000       1.35000000  F       0.00000000       0.00000000       0.00000000
O        9.29000000       1.31000000       1.44000000  F       0.00000000       0.00000000       0.00000000
O        6.84000000       0.20000000       1.30000000  F       0.00000000       0.00000000       0.00000000
O        3.95000000       9.60000000       1.25000000  F       0.00000000       0.00000000       0.00000000
O        2.28000000       7.42000000       1.08000000  F       0.00000000       0.00000000       0.00000000
O        7.52000000       7.21000000       1.37000000  F       0.00000000       0.00000000       0.00000000
Si       2.11055226       3.96828909      12.31980717  T       0.48716555      -0.53152555       0.05800935
Si       2.90002332       3.64070085      15.07544960  T       0.46293163      -0.41986674      -0.74759503
Si       0.88106069       1.15148977      11.74730740  T      -0.53285032       0.01995462      -1.08098472
Si       8.28754385       0.97053596      15.60739937  T       0.88216539       1.06258852      -0.06980544
Si       5.43815007       2.00675625      14.42834200  T       1.50083908       0.89251254      -0.00446306
Si       4.77508909       5.92472488      16.08607270  T      -0.66631273      -1.34177263       0.36342866
Si       0.01092940       9.14722604      13.87261881  T       0.46968503      -0.50172829       0.22121891
Si       6.20050775       5.20633095      13.67489929  T      -0.42985829      -0.28451231      -1.72372707
Si       5.42400133       9.76150525      12.08334138  T       0.02800409      -0.29786307       1.29191698
Si       8.39426452       7.03754771      12.72810139  T       0.15112986      -0.12687776      -0.59124848
Si       3.05376508       4.31740985      20.21903910  T       0.82234752      -0.54934501      -0.41635744
Si       2.12122165       1.48603302      19.10777849  T      -0.83479860      -1.31971825      -1.05549087
Si       0.48365353       2.68532903      16.97547434  T       0.10698332      -0.56811904      -1.73644231
Si       4.92231817       1.58879091      17.66301169  T       0.23467881      -0.55252246      -1.25712761
Si       5.95544333       3.76728171      19.67570617  T       0.21244818      -0.26644961       0.65873867
Si       7.65311907       1.20284045      20.62552163  T       1.07940554       1.09891845      -1.70184410
Si       2.57431054       8.73888915      20.37045766  T       0.12442291       0.37539422      -0.79185141
Si       2.87912089       6.69062922      18.12638776  T       1.62533431       0.94075678       0.34397490
Si       1.08239444       6.15524469      21.39220027  T       0.13326694      -0.33510801      -1.87255339
Si       0.19403355       5.57055372      18.39029244  T      -0.85120210      -0.41955930      -0.31405269
Si       6.18405554       9.25576675      22.46444415  T      -2.23624867      -1.21081915      -0.11588785
Si       7.12877145       6.24623635      18.15271161  T      -0.13591098       0.31857475      -0.27062344
Si       7.17496065       9.50916427      18.14330372  T      -0.15978889      -0.98621986       1.37756635
Si       2.10000000       3.98000000       2.32000000  F       0.00000000       0.00000000       0.00000000
Si       2.92952428       3.64878598       5.04330164  T       0.68107047      -0.10803089       0.43763974
Si       0.89000000       1.15000000       1.77000000  F       0.00000000       0.00000000       0.00000000
Si       8.34368148       1.04950853       5.59832697  T      -0.63267600       0.52768529      -0.04173632
Si       5.43349468       1.98496963       4.43377315  T       1.27796052      -0.22986333       0.09391989
Si       4.78924855       5.79850957       6.08276594  T       0.37353160       1.60952895       1.11993778
Si       0.02211413       9.13396313       3.89790777  T       1.11520301      -1.14781333       1.41455897
Si       6.20203544       5.19949474       3.69138945  T      -0.36798242      -0.59848420      -1.00537866
Si       5.42000000       9.77000000       2.06000000  F       0.00000000       0.00000000       0.00000000
Si       8.39983651       7.03983609       2.74921316  T       0.53016584      -0.05919448       0.38874501
Si       3.71441011       4.28299297       9.90185582  T      -0.17112443      -0.35065576       0.64224660
Si       2.30562089       1.60870880       8.98465954  T       0.59448080      -0.42140920      -1.10676340
Si       0.52743356       2.81958948       6.93941721  T      -1.65133866       0.37273033       0.02200317
Si       5.02556753       1.20188053       7.46178255  T      -0.21588309       0.61184681       0.48808130
Si       6.57661698       3.44743217       9.03697270  T      -0.57225359       0.38884610      -0.08415548
Si       7.95198224       1.01191718      10.49696627  T       0.76208147      -0.56498812      -0.16062988
Si       3.52390302       8.23476571      10.42112295  T       1.06766871       0.14452476       0.10870606
Si       3.03030719       6.90552767       8.06498798  T      -1.91867437       0.17066961      -0.80723272
Si       0.92551825       6.44842272      10.98312649  T       0.57067685       0.31650508       0.35693142
Si       0.23510929       5.79384170       8.04897036  T       1.75131893       0.18548992      -2.46177443
Si       5.90881114       7.06480197      11.52096811  T      -0.11095453      -0.66788321       1.54216953
Si       7.42166367       6.07140952       7.82169148  T       0.53708239       0.52461972      -1.32936780
Si       7.32948211       9.31067285       7.97193935  T       1.05847185      -0.45928852       1.98676845
Si       7.93000000       1.02000000       0.50000000  F       0.00000000       0.00000000       0.00000000
Si       0.91000000       6.44000000       0.98000000  F       0.00000000       0.00000000       0.00000000
Si       5.91000000       7.08000000       1.49000000  F       0.00000000       0.00000000       0.00000000
C        4.96087731       5.00941334      25.66314984  T      -0.44237221       0.17127935     -13.17726879
F        5.80182087       6.04882644      25.66401848  T       0.16480144       0.43936582     -20.81189969
F        5.80596497       3.94601385      25.66397481  T       0.28463147      -0.57815691     -20.81266634
153
Lattice="10.0 0.0 0.0 0.0 10.0 0.0 0.0 0.0 43.74" Properties=species:S:1:pos:R:3:move_mask:L:1:momenta:R:3 etch=trj_CF2_30eV_case1 idx=0 index=0 source=trj_CF2_30eV_case1/0000/OUTCAR converged=T time_fs=11.0 pbc="T T T"
O        2.25421808       4.52988784      13.83543981  T      -0.66615430       1.28064204       0.22769893
O        1.48522246       2.45356908      12.53050948  T       0.04414491       0.47179726      -1.13907769
O        3.89092532       2.69742297      14.19966355  T      -0.49283397      -0.67560768       0.55584906
O        3.82349818       4.58020823      16.08060845  T      -0.07292019       0.34761702       0.48496250
O        1.64288068       2.88386680      15.82968546  T       0.03703010      -0.08179281       0.91928554
O        5.08274748       1.64876641      16.08154769  T      -0.42175903       0.29422558       0.67150348
O        5.22038129       0.83778696      13.25134626  T      -1.11557925       0.54088603       0.10742823
O        6.15846156       3.61442916      14.03968432  T      -0.04179216      -0.31744584       0.22857608
O        7.07837568       1.34827080      14.64427922  T       0.13721690       0.56528480       0.62876428
O        9.05393171       2.27967054      16.28522757  T      -0.39279312      -0.15714851       0.76852220
O        9.53999659       0.42269719      14.74080727  T       0.22148725       0.13589429       0.61338865
O        0.88649973       9.76327705      12.64394594  T       0.44394774      -0.53101796      -0.02653735
O        1.18904848       8.22669258      14.63454638  T      -1.04870923       0.37680197      -0.34530993
O        9.85792765       6.98482720      12.08203212  T       0.09904621      -0.02619045       1.43542298
O        5.17320430       6.18143874      14.54891529  T       0.68237319       0.00538143       0.51968132
O        5.61602576       5.61465272      12.18371728  T       0.63596056      -0.43266646       0.24885786
O        7.78249194       5.80221251      13.63482084  T      -0.02415485       0.31621037       0.11753827
O        5.59984089       8.24864300      12.65194936  T      -0.24151333       1.25610676      -0.67751752
O        8.56898095       8.39094517      13.63686877  T       0.73163462      -0.23476357      -0.08030188
O        2.43178387       5.21115253      21.45366267  T      -0.15560853      -0.30560425       0.58370112
O        0.20599334       6.18380520      22.76636696  T      -0.30024167      -0.18573789       0.31499134
O        1.84325136       0.13801504      19.97795870  T       0.33798184       0.42259133       0.54611913
O        2.19494016       2.97357785      19.91392536  T       0.81533408       0.99125560       0.87882031
O        3.44938683       1.26115767      18.20527483  T       0.28853455       0.28793431      -0.01709879
O        0.91095892       1.50866221      18.01957427  T      -0.30683992       0.76415539       0.27315149
O        0.40340521       4.12282936      17.74984727  T       0.09850984      -0.01142093       0.41144479
O        9.09167912       1.35340862      21.40379649  T       0.05034670       0.10794108       0.37035836
O        5.41568833       2.97515846      18.34912976  T      -0.04164454       0.48453730      -1.00058221
O        4.62174655       3.95975667      20.62441375  T       0.54582896      -0.26346020      -0.09708469
O        7.09398846       2.69080823      20.23394421  T      -0.40050356       0.30802663       0.66549728
O        6.43153837       0.43199004      21.42143649  T      -0.33010591       0.64343445       0.28662223
O        6.62640610       5.23118861      19.38756751  T      -0.29039433      -0.35115756       0.12070550
O        7.92414730       9.80850165      16.70458239  T       0.44920327       0.11109730      -0.53183195
O        3.84919491       7.02465763      16.86821845  T      -0.45589682      -0.40055739       0.11805000
O        3.72362109       9.41954760      21.42895140  T       0.63728932      -0.05862480      -0.07849863
O        3.20214375       7.96213679      19.10563824  T       0.10828751       0.33400006       0.37521841
O        1.26451823       6.62622276      17.76108108  T      -0.74942918       0.23571071      -0.66009433
O        3.20834083       5.26652350      18.88975946  T      -0.05190901      -0.18609079      -0.10465080
O        0.35768468       5.54630712      20.04681177  T      -0.25246986       0.40004502       1.12122718
O        1.52666607       7.67786709      21.05461329  T      -0.42666568       0.03382688       0.82640055
O        4.78397248       8.47772542      21.92935032  T       0.72669310       0.11436809       0.75431858
O        8.01502635       0.20998660      19.37612220  T      -0.06119685      -0.23110232      -0.31394358
O        6.92695874       8.84076497      23.75162808  T       0.01572766      -0.19796980       0.02820780
O        6.21750334       5.75259295      16.88741673  T       0.30573185       0.36659908       0.36244034
O        5.76497456       0.29486075      18.18752250  T      -0.13741671      -0.44921000       0.22034211
O        8.70138499       5.98747069      17.90894158  T      -0.43949384       0.47450715       0.00472128
O        6.97848199       7.89082538      18.41829078  T      -0.05864048       0.39383351      -0.29343799
O        2.22795301       4.54523313       3.81636331  T      -1.31741762       1.59559025      -0.11862813
O        1.48149147       2.43376476       2.51292166  T       0.09466777       0.16579978      -1.61852652
O        3.90507001       2.71078035       4.18301608  T      -0.12830813      -0.25835447       0.02127521
O        3.68217901       4.55194144       6.13313061  T      -0.25013037      -1.01018607      -0.49979817
O        1.69202527       2.92367831       5.81082161  T      -0.62999948      -0.08952812       0.16400627
O        4.83724150       1.32504654       5.84970789  T       0.46934756       0.06443468      -0.64703020
O        5.24153342       0.83058674       3.23295766  T      -0.47497732       0.35204983      -0.43153807
O        6.16376009       3.62508716       4.03891053  T       0.11216151      -0.15055929       0.23048370
O        7.08260695       1.35982671       4.66509795  T       0.20472606       0.91178113       1.15103550
O        9.02643556       2.43593517       6.29441033  T       1.65411426      -0.48541824       0.88321167
O        9.57163398       0.44554489       4.70400563  T       0.84845223       0.92012090      -0.24183631
O        0.89680781       9.78599066       2.60730270  T       0.69015447      -0.21591753      -0.80449760
O        1.17479267       8.23460435       4.62021538  T      -1.38251572       0.52131495      -0.71411899
O        9.87000000       6.98000000       2.02000000  F       0.00000000       0.00000000       0.00000000
O        5.17815372       6.15307606       4.54762611  T       0.77595738      -0.73247088       0.50292197
O        5.59000000       5.63000000       2.17000000  F       0.00000000       0.00000000       0.00000000
O        7.77975973       5.80523513       3.62185484  T      -0.08934520       0.34768105      -0.19704519
O        5.60625778       8.22129771       2.63351606  T      -0.10210911       0.76205632      -1.24811045
O        8.55957540       8.38257728       3.61752522  T       0.59328556      -0.32089368      -0.52535113
O        3.51615596       4.17361631      11.51965003  T      -0.79008758      -0.17308845      -0.25579612
O        1.14029059       4.87109430      11.35899512  T      -0.04605341      -0.38867303       0.22539741
O        1.72638038       0.90756846      10.36933968  T      -0.21198225      -0.26238609       0.46425493
O        2.78747038       3.12212060       9.32047241  T      -0.24212152       0.54519593      -0.09824994
O        3.55346253       0.98396892       8.17718892  T      -0.34123275       0.56809442       0.82686306
O        1.05048884       1.63915131       7.93964180  T      -0.56167383      -0.50027243       0.25949216
O        0.43331771       4.16359563       7.88429385  T       0.08028531      -0.02513775      -0.14179311
O        9.25862429       1.31283392      11.39895869  T      -0.60379388       0.06199610      -1.01184696
O        5.94594626       2.56624647       7.79534001  T       0.61326467       0.02794303       0.31218266
O        5.27460702       4.03584905       9.71892123  T       0.15078297       0.23526889       0.36214751
O        7.35769786       2.45250101      10.03398170  T       0.51761870       0.23639845       0.10435123
O        6.77485981       0.17959069      11.32858115  T      -1.24038028      -0.26859625       0.37609730
O        7.50815280       4.83666757       8.94447559  T      -0.31573734      -0.50252131      -0.58103993
O        8.08836330       9.75630624       6.58422163  T      -0.17625129       0.62051625      -0.18117679
O        4.10186819       7.03615076       6.82140339  T       0.51706197      -0.17459008      -0.43152748
O        3.97206080       9.58963276      11.22821668  T       0.59242846      -0.23155327      -0.59915416
O        3.05951621       8.33767146       8.85710974  T      -0.04083255      -0.34574286      -0.31397326
O        1.53391457       6.61663550       7.47086810  T      -0.11205051      -0.57621795      -0.14160432
O        3.34507555       5.60464262       9.03740904  T      -0.20726557       0.10855034       0.59101538
O        0.17766311       6.47416577       9.54805699  T      -0.61635534      -0.56214797       0.20035124
O        2.25013426       7.38648028      11.10426750  T      -0.41301874      -0.63883387       0.55518936
O        4.95700730       7.37769632      10.22160677  T      -0.70628668       0.34139434       0.53279047
O        8.17963934       0.03302215       9.17516714  T       0.07646060      -0.34156221      -0.66562970
O        7.52022502       7.20631128      11.34435894  T      -0.08392203      -0.11727934      -0.67951481
O        6.19230466       5.50468543       6.87860157  T       0.31176096       0.13241837      -0.07646564
O        5.81374186       9.88356152       8.02088806  T       0.01931650      -0.35341942      -0.29098695
O        8.90124180       6.08217949       7.12768137  T      -0.80081880       0.07225486       0.93427883
O        7.25314870       7.67616792       8.17360412  T      -0.47964611       0.10674481       0.10484891
O        3.55000000       4.18000000       1.53000000  F       0.00000000       0.00000000       0.00000000
O        1.14000000       4.89000000       1.35000000  F       0.00000000       0.00000000       0.00000000
O        9.29000000       1.31000000       1.44000000  F       0.00000000       0.00000000       0.00000000
O        6.84000000       0.20000000       1.30000000  F       0.00000000       0.00000000       0.00000000
O        3.95000000       9.60000000       1.25000000  F       0.00000000       0.00000000       0.00000000
O        2.28000000       7.42000000       1.08000000  F       0.00000000       0.00000000       0.00000000
O        7.52000000       7.21000000       1.37000000  F       0.00000000       0.00000000       0.00000000
Si       2.11225486       3.96643555      12.32007131  T       0.48398407      -0.52583667       0.09443180
Si       2.90164617       3.63923860      15.07276449  T       0.46310064      -0.41421105      -0.78623838
Si       0.87909236       1.15152188      11.74347981  T      -0.59276365      -0.00246320      -1.10475333
Si       8.29069748       0.97435331      15.60719534  T       0.91900407       1.11774689      -0.04573618
Si       5.44358287       2.00998556      14.42837922  T       1.60364997       0.95274556       0.02666060
Si       4.77276877       5.91988025      16.08741551  T      -0.65752180      -1.42594040       0.40443857
Si       0.01255513       9.14553276      13.87345979  T       0.45789931      -0.46320507       0.25927456
Si       6.19900964       5.20523621      13.66878417  T      -0.42469662      -0.34260201      -1.76683101
Si       5.42396603       9.76056332      12.08804649  T      -0.05132805      -0.23584101       1.39699829
Si       8.39475757       7.03709238      12.72598973  T       0.12956932      -0.13318107      -0.61500858
Si       3.05681357       4.31551836      20.21764807  T       0.92164105      -0.52903083      -0.37618454
Si       2.11831658       1.48155021      19.10402722  T      -0.82281596      -1.23760741      -1.08736355
Si       0.48397775       2.68340545      16.96926883  T       0.07690436      -0.52894104      -1.80744854
Si       4.92323809       1.58682023      17.65861039  T       0.29210696      -0.57309805      -1.25367369
Si       5.95616314       3.76624049      19.67796588  T       0.19810564      -0.32975534       0.62976831
Si       7.65692805       1.20673953      20.61945559  T       1.09546051       1.12763453      -1.76245226
Si       2.57469276       8.74019038      20.36776528  T       0.09278120       0.36751574      -0.74290949
Si       2.88471628       6.69392784      18.12764679  T       1.56722826       0.94217988       0.37622469
Si       1.08288648       6.15398774      21.38555299  T       0.14859194      -0.38327941      -1.92168538
Si       0.19095782       5.56909632      18.38927372  T      -0.90594262      -0.41191874      -0.26679383
Si       6.17612481       9.25147150      22.46413220  T      -2.29123725      -1.24008567      -0.06092796
Si       7.12822825       6.24738136      18.15181639  T      -0.17573422       0.33559450      -0.23900890
Si       7.17444157       9.50568283      18.14803756  T      -0.13623373      -1.00117920       1.32308600
Si       2.10000000       3.98000000       2.32000000  F       0.00000000       0.00000000       0.00000000
Si       2.93174320       3.64834934       5.04470147  T       0.58190786      -0.14291815       0.35869966
Si       0.89000000       1.15000000       1.77000000  F       0.00000000       0.00000000       0.00000000
Si       8.34157134       1.05142436       5.59821467  T      -0.56852732       0.56671275      -0.02131002
Si       5.43813532       1.98416800       4.43403948  T       1.37397688      -0.22738667       0.05685292
Si       4.79055908       5.80403955       6.08673943  T       0.37617023       1.54470068       1.14837229
Si       0.02608454       9.12998951       3.90296593  T       1.15102967      -1.11815554       1.47391561
Si       6.20074285       5.19730086       3.68774449  T      -0.36979821      -0.65581452      -1.07739472
Si       5.42000000       9.77000000       2.06000000  F       0.00000000       0.00000000       0.00000000
Si       8.40176018       7.03958654       2.75054854  T       0.56922103      -0.08412418       0.37283284
Si       3.71386089       4.28174382       9.90417577  T      -0.14228103      -0.36250691       0.68261014
Si       2.30758611       1.60731106       8.98081938  T       0.52358665      -0.37454899      -1.08431061
Si       0.52154185       2.82084804       6.93954121  T      -1.71190749       0.34490826       0.05034896
Si       5.02480941       1.20407541       7.46346426  T      -0.21636936       0.64168972       0.47164946
Si       6.57464302       3.44883249       9.03672634  T      -0.55378579       0.41107782      -0.05512239
Si       7.95446513       1.00979666      10.49636414  T       0.65115670      -0.64761757      -0.18473842
Si       3.52762727       8.23522332      10.42153770  T       1.05750972       0.11602728       0.12810334
Si       3.02350415       6.90606821       8.06207377  T      -1.96549102       0.13701878      -0.85727931
Si       0.92740964       6.44946458      10.98452380  T       0.50665895       0.27618659       0.44244647
Si       0.24133962       5.79448139       8.04023585  T       1.80525409       0.17847519      -2.52571664
Si       5.90837957       7.06248877      11.52647609  T      -0.13618474      -0.65147882       1.60371340
Si       7.42353003       6.07325539       7.81700807  T       0.52674402       0.52928460      -1.34393735
Si       7.33330054       9.30903038       7.97895207  T       1.12182618      -0.47917830       2.01635205
Si       7.93000000       1.02000000       0.50000000  F       0.00000000       0.00000000       0.00000000
Si       0.91000000       6.44000000       0.98000000  F       0.00000000       0.00000000       0.00000000
Si       5.91000000       7.08000000       1.49000000  F       0.00000000       0.00000000       0.00000000
C        4.95776183       5.01079118      25.55538082  T      -0.31537118       0.16478397     -13.17833047
F        5.80251640       6.05101781      25.55641198  T       0.10233252       0.40621861     -20.81315403
F        5.80727289       3.94313251      25.55637157  T       0.21884684      -0.53346742     -20.81100470
153
Lattice="10.0 0.0 0.0 0.0 10.0 0.0 0.0 0.0 43.74" Properties=species:S:1:pos:R:3:move_mask:L:1:momenta:R:3 etch=trj_CF2_30eV_case1 idx=0 index=0 source=trj_CF2_30eV_case1/0000/OUTCAR converged=T time_fs=12.0 pbc="T T T"
O        2.25004865       4.53788752      13.83695159  T      -0.69068345       1.32230739       0.26484006
O        1.48539553       2.45636832      12.52324400  T       0.01114186       0.43770762      -1.22674512
O        3.88784481       2.69308384      14.20319087  T      -0.50950240      -0.73773690       0.59234969
O        3.82284788       4.58216871      16.08359282  T      -0.14090078       0.28774542       0.48579381
O        1.64337847       2.88343976      15.83530187  T       0.12804197      -0.05638875       0.90664930
O        5.08013509       1.65068638      16.08527314  T      -0.42813441       0.33142821       0.53572316
O        5.21329167       0.84126235      13.25209468  T      -1.19273938       0.59097203       0.13674211
O        6.15819676       3.61254436      14.04108528  T      -0.04444427      -0.29473091       0.22688913
O        7.07915995       1.35191527      14.64822572  T       0.11776734       0.62181994       0.65593063
O        9.05148897       2.27881355      16.29016978  T      -0.40232310      -0.12041845       0.84111419
O        9.54161859       0.42336460      14.74446838  T       0.30822292       0.08040772       0.57710798
O        0.88929130       9.76011893      12.64364730  T       0.46441301      -0.49544384      -0.07160528
O        1.18251218       8.22897032      14.63246120  T      -1.07757526       0.36302596      -0.33202138
O        9.85897999       6.98450730      12.09086422  T       0.24676767      -0.07916928       1.43829362
O        5.17757788       6.18142582      14.55219851  T       0.74219356      -0.01038777       0.54898810
O        5.61995071       5.61190351      12.18512303  T       0.64037407      -0.46244151       0.20615902
O        7.78223851       5.80419488      13.63554219  T      -0.05940278       0.32901125       0.11688545
O        5.59836043       8.25615294      12.64779175  T      -0.23974557       1.18279611      -0.67379010
O        8.57353186       8.38946871      13.63636009  T       0.74882995      -0.24595419      -0.08549215
O        2.43087481       5.20915146      21.45727934  T      -0.13963623      -0.34650090       0.59274851
O        0.20419491       6.18260992      22.76820009  T      -0.28399076      -0.20364239       0.27981208
O        1.84536440       0.14062339      19.98147274  T       0.34971941       0.42628108       0.59844727
O        2.19993331       2.97911966      19.91918647  T       0.80844030       0.80719941       0.83196546
O        3.45098076       1.26296182      18.20527228  T       0.22897775       0.29929566       0.01684106
O        0.90894208       1.51347689      18.02130503  T      -0.35082409       0.80313117       0.29009957
O        0.40402689       4.12242123      17.75233253  T       0.10363001      -0.12331601       0.39712159
O        9.09199751       1.35410830      21.40612749  T       0.05316324       0.12005683       0.38826999
O        5.41550350       2.97828079      18.34291233  T      -0.01778843       0.53205538      -1.02271636
O        4.62513973       3.95810666      20.62386271  T       0.55804915      -0.27354783      -0.08146535
O        7.09150130       2.69276748      20.23816589  T      -0.40855071       0.32984655       0.70899148
O        6.42962011       0.43607036      21.42324810  T      -0.29305206       0.68418285       0.30376372
O        6.62465313       5.22913677      19.38824290  T      -0.27956865      -0.31532595       0.09841015
O        7.92679723       9.80909782      16.70161784  T       0.41233108       0.08255055      -0.43080193
O        3.84644217       7.02214428      16.86883668  T      -0.43876747      -0.41748829       0.08163816
O        3.72765124       9.41912585      21.42840503  T       0.67488112      -0.07922785      -0.09981989
O        3.20289022       7.96424374      19.10794252  T       0.13555567       0.35165212       0.37392802
O        1.26021296       6.62776317      17.75704426  T      -0.64984471       0.26567171      -0.65260002
O        3.20800931       5.26552999      18.88900738  T      -0.05595052      -0.13591250      -0.14056844
O        0.35585806       5.54876648      20.05341486  T      -0.34521613       0.39936760       1.02282061
O        1.52417324       7.67844121      21.05972617  T      -0.38339942       0.15560228       0.83739412
O        4.78828963       8.47831711      21.93404695  T       0.67419396       0.07606258       0.77329666
O        8.01472660       0.20857634      19.37421062  T      -0.03533261      -0.22735841      -0.30757068
O        6.92688730       8.83955294      23.75153324  T      -0.04023380      -0.19654800      -0.06097227
O        6.21925099       5.75493019      16.88958495  T       0.26133845       0.39433630       0.34215834
O        5.76410029       0.29198631      18.18892840  T      -0.14743169      -0.48674917       0.23736582
O        8.69869109       5.99046669      17.90900659  T      -0.43635106       0.50075325       0.01677300
O        6.97808922       7.89311030      18.41646696  T      -0.06955261       0.34753414      -0.29987857
O        2.21971520       4.55513289       3.81582947  T      -1.36384405       1.62536283      -0.05430651
O        1.48215413       2.43488877       2.50261932  T       0.12188395       0.20107354      -1.73620801
O        3.90426411       2.70914056       4.18308721  T      -0.13405399      -0.27550537       0.00129687
O        3.68109697       4.54612283       6.13024561  T      -0.09826423      -0.87964407      -0.43647985
O        1.68817164       2.92319815       5.81173200  T      -0.62359314      -0.06598190       0.13146346
O        4.84020428       1.32538103       5.84606418  T       0.49509938       0.04395877      -0.53576156
O        5.23856639       0.83287999       3.23026355  T      -0.49041218       0.39514733      -0.44525843
O        6.16448094       3.62411291       4.04035066  T       0.12265559      -0.16695726       0.23804127
O        7.08374430       1.36570677       4.67228196  T       0.16390585       1.00386402       1.18661643
O        9.03665900       2.43273942       6.29990896  T       1.66969627      -0.55678030       0.90518962
O        9.57696377       0.45132696       4.70240385  T       0.88572504       0.96242951      -0.28006242
O        0.90113986       9.78452339       2.60229144  T       0.72018074      -0.26236385      -0.82673062
O        1.16624549       8.23768479       4.61584811  T      -1.39626090       0.47774717      -0.70495550
O        9.87000000       6.98000000       2.02000000  F       0.00000000       0.00000000       0.00000000
O        5.18307049       6.14844560       4.55083045  T       0.82490216      -0.77499744       0.54042884
O        5.59000000       5.63000000       2.17000000  F       0.00000000       0.00000000       0.00000000
O        7.77910483       5.80735587       3.62063518  T      -0.12479390       0.34181155      -0.19979057
O        5.60561310       8.22599646       2.62565669  T      -0.10774460       0.76577323      -1.30983852
O        8.56338438       8.38072127       3.61429959  T       0.64701529      -0.28147494      -0.52382443
O        3.51131599       4.17252332      11.51807108  T      -0.78368202      -0.18272902      -0.25750696
O        1.13994593       4.86876569      11.36040373  T      -0.06655763      -0.36832766       0.23316882
O        1.72520767       0.90597498      10.37192587  T      -0.16823022      -0.25609946       0.37449837
O        2.78577392       3.12525691       9.31974088  T      -0.31122711       0.47399791      -0.14070351
O        3.55173867       0.98745357       8.18220316  T      -0.21528277       0.56499700       0.80321884
O        1.04690912       1.63606079       7.94128130  T      -0.60392302      -0.50510908       0.27426885
O        0.43381764       4.16359365       7.88340558  T       0.08248286       0.02580781      -0.14754255
O        9.25509688       1.31321305      11.39268877  T      -0.54125384       0.06136754      -1.02781253
O        5.94972601       2.56627967       7.79720593  T       0.61639770      -0.01823806       0.29443964
O        5.27532956       4.03740792       9.72133285  T       0.08323292       0.27260125       0.42395675
O        7.36100002       2.45389578      10.03462643  T       0.55745205       0.21703622       0.10508475
O        6.76754724       0.17816802      11.33056379  T      -1.13622134      -0.19256245       0.26639654
O        7.50616437       4.83362640       8.94063878  T      -0.33153409      -0.48634533      -0.66953011
O        8.08712506       9.76013822       6.58332154  T      -0.22767324       0.62643861      -0.10993431
O        4.10474946       7.03530288       6.81904349  T       0.41695876      -0.09819055      -0.33333886
O        3.97580009       9.58823590      11.22442722  T       0.62495436      -0.22214309      -0.63437504
O        3.05922774       8.33547531       8.85517191  T      -0.05338889      -0.36928771      -0.31614542
O        1.53327994       6.61307915       7.46975840  T      -0.09337895      -0.58009174      -0.22286582
O        3.34368872       5.60557022       9.04099892  T      -0.24491953       0.19491178       0.57681756
O        0.17378017       6.47048405       9.54905715  T      -0.64697228      -0.63745602       0.12379184
O        2.24793704       7.38272447      11.10768307  T      -0.29867366      -0.58143129       0.55623691
O        4.95276249       7.37968418      10.22520034  T      -0.67299114       0.30349019       0.63920893
O        8.18024571       0.03100536       9.17128995  T       0.12299614      -0.31327880      -0.59260412
O        7.51960636       7.20554822      11.34009603  T      -0.11806658      -0.13145270      -0.70755687
O        6.19424869       5.50553052       6.87807670  T       0.32083103       0.14286221      -0.09482109
O        5.81379675       9.88142167       8.01900569  T      -0.00147117      -0.34246724      -0.32214433
O        8.89651175       6.08265241       7.13346613  T      -0.73419045       0.08195606       0.94707561
O        7.25009429       7.67677160       8.17427608  T      -0.51494063       0.08893849       0.11405787
O        3.55000000       4.18000000       1.53000000  F       0.00000000       0.00000000       0.00000000
O        1.14000000       4.89000000       1.35000000  F       0.00000000       0.00000000       0.00000000
O        9.29000000       1.31000000       1.44000000  F       0.00000000       0.00000000       0.00000000
O        6.84000000       0.20000000       1.30000000  F       0.00000000       0.00000000       0.00000000
O        3.95000000       9.60000000       1.25000000  F       0.00000000       0.00000000       0.00000000
O        2.28000000       7.42000000       1.08000000  F       0.00000000       0.00000000       0.00000000
O        7.52000000       7.21000000       1.37000000  F       0.00000000       0.00000000       0.00000000
Si       2.11392306       3.96462583      12.32047586  T       0.46739717      -0.50648354       0.13829606
Si       2.90325120       3.63781574      15.06995936  T       0.45275773      -0.39732841      -0.81621152
Si       0.87691449       1.15146756      11.73959641  T      -0.65251242      -0.02943829      -1.11324029
Si       8.29395954       0.97833897      15.60708572  T       0.94421685       1.15863358      -0.01593709
Si       5.44935436       2.01341238      14.42853338  T       1.69437951       1.00537875       0.06225268
Si       4.77050701       5.91476632      16.08890135  T      -0.63294488      -1.49561490       0.44508978
Si       0.01412078       9.14400509      13.87442867  T       0.43550065      -0.40715913       0.29388320
Si       6.19754943       5.20392840      13.66257795  T      -0.40818005      -0.40622051      -1.77557250
Si       5.42362501       9.75988532      12.09310263  T      -0.14643607      -0.14662818       1.49226993
Si       8.39516432       7.03661797      12.72380630  T       0.10205718      -0.13778506      -0.63248061
Si       3.06021578       4.31372766      20.21642359  T       1.02441585      -0.49195391      -0.32149269
Si       2.11548640       1.47740899      19.10018530  T      -0.79225884      -1.12530824      -1.10742878
Si       0.48418317       2.68164498      16.96285885  T       0.03925524      -0.47523551      -1.85325279
Si       4.92436485       1.58478942      17.65427739  T       0.35263839      -0.58698169      -1.21814461
Si       5.95682352       3.76497138      19.68009025  T       0.17869384      -0.39643152       0.58147509
Si       7.66076345       1.21071049      20.61321956  T       1.09474474       1.14014123      -1.79906184
Si       2.57495223       8.74145387      20.36528854  T       0.05445724       0.35411483      -0.66882053
Si       2.89004434       6.69720106      18.12902076  T       1.47320598       0.92652835       0.40966440
Si       1.08343744       6.15256736      21.37879905  T       0.16720331      -0.42806304      -1.93341464
Si       0.18770679       5.56768306      18.38843418  T      -0.95126737      -0.39451073      -0.21226092
Si       6.16807328       9.24712459      22.46402581  T      -2.30519751      -1.23991765       0.00119508
Si       7.12753635       6.24858032      18.15105273  T      -0.22089218       0.34940773      -0.19553042
Si       7.17401180       9.50218082      18.15252345  T      -0.10892855      -0.99806941       1.23639783
Si       2.10000000       3.98000000       2.32000000  F       0.00000000       0.00000000       0.00000000
Si       2.93356220       3.64777957       5.04578835  T       0.45304229      -0.18389147       0.25932835
Si       0.89000000       1.15000000       1.77000000  F       0.00000000       0.00000000       0.00000000
Si       8.33973623       1.05346523       5.59818476  T      -0.47551910       0.59893737       0.00536982
Si       5.44309470       1.98338580       4.43416280  T       1.46000694      -0.21875700       0.01245459
Si       4.79188251       5.80926994       6.09077629  T       0.38119685       1.43896454       1.15627850
Si       0.03014015       9.12617840       3.90819417  T       1.16366941      -1.05492974       1.51171241
Si       6.19945660       5.19490899       3.68386275  T      -0.36439775      -0.71162742      -1.14058426
Si       5.42000000       9.77000000       2.06000000  F       0.00000000       0.00000000       0.00000000
Si       8.40381435       7.03924445       2.75180975  T       0.60475505      -0.11196151       0.34654333
Si       3.71341698       4.28046410       9.90661912  T      -0.11150845      -0.36808642       0.71241883
Si       2.30925048       1.60610734       8.97710217  T       0.42266566      -0.31079775      -1.03686422
Si       0.51549498       2.82199122       6.93977843  T      -1.73939151       0.30713816       0.08695821
Si       5.02406186       1.20635959       7.46507127  T      -0.20970415       0.66280648       0.44565696
Si       6.57275852       3.45030260       9.03659642  T      -0.52138251       0.42868774      -0.01758786
Si       7.95650037       1.00738812      10.49566773  T       0.50670486      -0.72932590      -0.21458269
Si       3.53127444       8.23557135      10.42201618  T       1.02373020       0.08207295       0.14488976
Si       3.01659400       6.90647876       8.05900334  T      -1.97996865       0.09665016      -0.89635090
Si       0.92903904       6.45033707      10.98622142  T       0.42137628       0.21982489       0.52798431
Si       0.24770005       5.79507889       8.03134486  T       1.82541848       0.16119239      -2.55142084
Si       5.90785668       7.06026448      11.53216398  T      -0.16311010      -0.61717476       1.64508250
Si       7.42532771       6.07510274       7.81231863  T       0.49765783       0.52561964      -1.33295744
Si       7.33730888       9.30732512       7.98600292  T       1.16655975      -0.49529666       2.00867593
Si       7.93000000       1.02000000       0.50000000  F       0.00000000       0.00000000       0.00000000
Si       0.91000000       6.44000000       0.98000000  F       0.00000000       0.00000000       0.00000000
Si       5.91000000       7.08000000       1.49000000  F       0.00000000       0.00000000       0.00000000
C        4.95576769       5.01209647      25.44760250  T      -0.16936004       0.15355102     -13.17954291
F        5.80286521       6.05301065      25.44879945  T       0.03132633       0.36302642     -20.81418496
F        5.80820912       3.94052088      25.44877898  T       0.14140974      -0.47433144     -20.80852699
153
Lattice="10.0 0.0 0.0 0.0 10.0 0.0 0.0 0.0 43.74" Properties=species:S:1:pos:R:3:move_mask:L:1:momenta:R:3 etch=trj_CF2_30eV_case1 idx=0 index=0 source=trj_CF2_30eV_case1/0000/OUTCAR converged=T time_fs=13.0 pbc="T T T"
O        2.24575118       4.54609383      13.83869152  T      -0.70787218       1.34792834       0.30182467
O        1.48534890       2.45892105      12.51545652  T      -0.02725901       0.39180479      -1.30898617
O        3.88468094       2.68836628      14.20692786  T      -0.51999353      -0.79877555       0.62403765
O        3.82174886       4.58370898      16.08655957  T      -0.21886034       0.21095738       0.47933136
O        1.64448117       2.88318309      15.84078180  T       0.23374585      -0.02645941       0.87499834
O        5.07750132       1.65283779      16.08806519  T      -0.42880580       0.36952750       0.36836463
O        5.20574801       0.84504027      13.25302842  T      -1.26337188       0.63932816       0.16766192
O        6.15791601       3.61082810      14.04246107  T      -0.04699892      -0.26265968       0.22038530
O        7.07981836       1.35590448      14.65232479  T       0.09655352       0.67745159       0.67856763
O        9.04899689       2.27820736      16.29555142  T      -0.40906852      -0.07564596       0.91145917
O        9.54379223       0.42367606      14.74787477  T       0.40063957       0.02051977       0.53100097
O        0.89219148       9.75721540      12.64305949  T       0.47923418      -0.44842774      -0.12041598
O        1.17584767       8.23112756      14.63048952  T      -1.09035966       0.33744786      -0.30827733
O        9.86098349       6.98384469      12.09966136  T       0.40788099      -0.13755593       1.42462609
O        5.18231595       6.18130269      14.55564741  T       0.80105029      -0.03058288       0.57361900
O        5.62386602       5.60897912      12.18621866  T       0.63282282      -0.48972590       0.14781317
O        7.78175294       5.80624700      13.63625017  T      -0.09963908       0.33895987       0.11314676
O        5.59690740       8.26309126      12.64370777  T      -0.23257443       1.07023443      -0.65342264
O        8.57815516       8.38792743      13.63581782  T       0.75521029      -0.25591227      -0.09129629
O        2.43007754       5.20689592      21.46092351  T      -0.11935603      -0.38837270       0.59263428
O        0.20252226       6.18130466      22.76977922  T      -0.25937365      -0.22154006       0.23235268
O        1.84753932       0.14324227      19.98530476  T       0.35818012       0.42625938       0.64954264
O        2.20484056       2.98342651      19.92411268  T       0.78774110       0.59031541       0.77026157
O        3.45218433       1.26482801      18.20548571  T       0.16206167       0.30818127       0.05290537
O        0.90664444       1.51851246      18.02313042  T      -0.39827015       0.83610665       0.30391747
O        0.40467334       4.12130169      17.75471493  T       0.10648094      -0.24220982       0.37829462
O        9.09232952       1.35488351      21.40855666  T       0.05473160       0.13253803       0.40230464
O        5.41547738       2.98168511      18.33659191  T       0.00996013       0.57617400      -1.03431346
O        4.62858391       3.95640266      20.62342296  T       0.56245894      -0.28107298      -0.06087917
O        7.08898359       2.69485454      20.24264223  T      -0.41046026       0.34962883       0.74843346
O        6.42795631       0.44037408      21.42516964  T      -0.24747019       0.71601672       0.32256043
O        6.62298347       5.22733470      19.38876752  T      -0.26341934      -0.27011842       0.07175522
O        7.92919494       9.80951128      16.69931997  T       0.36741726       0.05190932      -0.31545949
O        3.84382742       7.01953817      16.86920431  T      -0.41112938      -0.43081269       0.03660016
O        3.73190101       9.41857039      21.42772245  T       0.70879331      -0.10209387      -0.12284253
O        3.20381496       7.96644732      19.11021465  T       0.16631172       0.36542739       0.36477499
O        1.25656685       6.62947940      17.75309127  T      -0.53557937       0.29272713      -0.63283699
O        3.20765537       5.26486927      18.88803296  T      -0.05917955      -0.07811147      -0.17671109
O        0.35341935       5.55119322      20.05930248  T      -0.45167749       0.38944000       0.88869818
O        1.52197634       7.67979764      21.06487915  T      -0.33071576       0.28771688       0.83973571
O        4.79219453       8.47863502      21.93882136  T       0.59230588       0.02506498       0.77959057
O        8.01460355       0.20720424      19.37235719  T      -0.00371687      -0.21871852      -0.29511357
O        6.92645370       8.83835355      23.75086364  T      -0.10192564      -0.19407632      -0.15834900
O        6.22069074       5.75743021      16.89160154  T       0.20569834       0.41954939       0.31324260
O        5.76316336       0.28888866      18.19043403  T      -0.15789527      -0.52180158       0.25276641
O        8.69604426       5.99361225      17.90915048  T      -0.42420985       0.52322450       0.03035522
O        6.97762538       7.89506358      18.41461678  T      -0.08180172       0.28603184      -0.30202306
O        2.21122857       4.56515108       3.81570348  T      -1.39860363       1.63424076       0.01367632
O        1.48299502       2.43624078       2.49161626  T       0.15269872       0.23999231      -1.84673777
O        3.90342542       2.70740078       4.18302639  T      -0.13903369      -0.29088388      -0.02160653
O        3.68100912       4.54119150       6.12780380  T       0.07270208      -0.72238982      -0.35612746
O        1.68438471       2.92287683       5.81242600  T      -0.60852502      -0.03789543       0.09377877
O        4.84331389       1.32558158       5.84316700  T       0.51720839       0.02102378      -0.40481443
O        5.23552332       0.83543977       3.22749825  T      -0.49973293       0.43874371      -0.45482580
O        6.16526606       3.62303555       4.04182703  T       0.13307978      -0.18414456       0.24224506
O        7.08460217       1.37215450       4.67964276  T       0.11404276       1.09656380       1.20876510
O        9.04686867       2.42908637       6.30549550  T       1.64917698      -0.63439901       0.91166190
O        9.58248814       0.45735377       4.70056647  T       0.91165792       1.00009142      -0.31841150
O        0.90564295       9.78276753       2.59716208  T       0.74600617      -0.30960292      -0.84327540
O        1.15770584       8.24042435       4.61159674  T      -1.37977071       0.41005364      -0.67620540
O        9.87000000       6.98000000       2.02000000  F       0.00000000       0.00000000       0.00000000
O        5.18827467       6.14356937       4.55425656  T       0.86961308      -0.81251835       0.57504308
O        5.59000000       5.63000000       2.17000000  F       0.00000000       0.00000000       0.00000000
O        7.77821973       5.80941875       3.61940616  T      -0.16421379       0.32889844      -0.20015783
O        5.60493633       8.23067148       2.61745640  T      -0.11256910       0.75425173      -1.35905178
O        8.56751378       8.37914267       3.61110845  T       0.69739944      -0.23078931      -0.51431730
O        3.50656188       4.17137485      11.51649934  T      -0.76225241      -0.19117935      -0.25334412
O        1.13947043       4.86658628      11.36185562  T      -0.08856273      -0.34031360       0.23957909
O        1.72433168       0.90442913      10.37390309  T      -0.11561963      -0.24702341       0.26646601
O        2.78364364       3.12791977       9.31873942  T      -0.38300661       0.39180910      -0.18590221
O        3.55086691       0.99088649       8.18701958  T      -0.06444776       0.55144998       0.76284000
O        1.04307877       1.63296275       7.94300629  T      -0.64326487      -0.50278986       0.28732681
O        0.43432987       4.16392394       7.88248176  T       0.08433370       0.08268416      -0.15349919
O        9.25201737       1.31358607      11.38636589  T      -0.45831753       0.06001090      -1.02928934
O        5.95349959       2.56601292       7.79894446  T       0.61146157      -0.06941460       0.27096799
O        5.27561888       4.03919578       9.72413081  T       0.01040116       0.30962841       0.48771715
O        7.36453579       2.45515795      10.03526556  T       0.59358672       0.19346813       0.10244172
O        6.76095842       0.17724674      11.33182225  T      -1.00582300      -0.10582622       0.14107521
O        7.50408658       4.83071313       8.93624840  T      -0.34486704      -0.46107658      -0.76110973
O        8.08556327       9.76398586       6.58289087  T      -0.28138509       0.62585264      -0.02872845
O        4.10694468       7.03497786       6.81734646  T       0.29428120      -0.00475525      -0.21632852
O        3.97972771       9.58691901      11.22043675  T       0.65383967      -0.20545653      -0.66456945
O        3.05885829       8.33314105       8.85323979  T      -0.06716949      -0.39068115      -0.31204252
O        1.53278125       6.60953519       7.46810078  T      -0.06779649      -0.57214449      -0.32011978
O        3.34206454       5.60704592       9.04447755  T      -0.28445398       0.28645042       0.55517183
O        0.16973582       6.46633677       9.54956344  T      -0.66874889      -0.71359431       0.04013947
O        2.24650434       7.37937090      11.11108612  T      -0.16479977      -0.50837194       0.55129195
O        4.94877855       7.38139580      10.22946810  T      -0.62147438       0.25146959       0.75207528
O        8.18116953       0.02919643       9.16793782  T       0.17988786      -0.27404184      -0.49494448
O        7.51877191       7.20469551      11.33568768  T      -0.15395285      -0.14648262      -0.72678096
O        6.19623737       5.50643960       6.87743443  T       0.32635513       0.15327525      -0.11464383
O        5.81372503       9.87936744       8.01693355  T      -0.02161507      -0.32572335      -0.35270228
O        8.89228572       6.08318753       7.13927903  T      -0.63679457       0.09254192       0.94341193
O        7.24683000       7.67725042       8.17500485  T      -0.54797921       0.06613804       0.12336798
O        3.55000000       4.18000000       1.53000000  F       0.00000000       0.00000000       0.00000000
O        1.14000000       4.89000000       1.35000000  F       0.00000000       0.00000000       0.00000000
O        9.29000000       1.31000000       1.44000000  F       0.00000000       0.00000000       0.00000000
O        6.84000000       0.20000000       1.30000000  F       0.00000000       0.00000000       0.00000000
O        3.95000000       9.60000000       1.25000000  F       0.00000000       0.00000000       0.00000000
O        2.28000000       7.42000000       1.08000000  F       0.00000000       0.00000000       0.00000000
O        7.52000000       7.21000000       1.37000000  F       0.00000000       0.00000000       0.00000000
Si       2.11550925       3.96290738      12.32104662  T       0.43705618      -0.47373096       0.18941070
Si       2.90480190       3.63647147      15.06706462  T       0.43209039      -0.36931330      -0.83749303
Si       0.87452925       1.15131118      11.73570712  T      -0.71115993      -0.06079124      -1.10857729
Si       8.29729001       0.98244121      15.60708931  T       0.95824269       1.18423669       0.01884499
Si       5.45542106       2.01700948      14.42881862  T       1.77234411       1.05007735       0.10145732
Si       4.76835767       5.90943501      16.09052774  T      -0.59344388      -1.55016920       0.48466752
Si       0.01559096       9.14270290      13.87550889  T       0.40352434      -0.33447099       0.32245083
Si       6.19616672       5.20238959      13.65640260  T      -0.38043724      -0.47450982      -1.74910990
Si       5.42292714       9.75956861      12.09847194  T      -0.25483473      -0.02915176       1.57570488
Si       8.39546681       7.03613040      12.72157117  T       0.07031204      -0.14072141      -0.64481717
Si       3.06398163       4.31209350      20.21541270  T       1.12926308      -0.43996309      -0.25449622
Si       2.11279307       1.47370627      19.09629322  T      -0.74496002      -0.98778872      -1.11609861
Si       0.48424552       2.68009482      16.95633332  T      -0.00460724      -0.40905641      -1.87351575
Si       4.92570622       1.58272115      17.65012337  T       0.41448106      -0.59460653      -1.15169570
Si       5.95740897       3.76346586      19.68201316  T       0.15551089      -0.46456648       0.51478277
Si       7.66456891       1.21469793      20.60689724  T       1.07861404       1.13722025      -1.81185106
Si       2.57506777       8.74266315      20.36311245  T       0.01073659       0.33682430      -0.57138017
Si       2.89498658       6.70039225      18.13051322  T       1.34741957       0.89567607       0.44384975
Si       1.08406094       6.15100007      21.37206996  T       0.19026191      -0.46679852      -1.90756166
Si       0.18431502       5.56634601      18.38779290  T      -0.98626942      -0.36862063      -0.15411839
Si       6.16004507       9.24283265      22.46414557  T      -2.27798445      -1.20837192       0.06789007
Si       7.12667763       6.24982179      18.15046067  T      -0.27105769       0.35986147      -0.14108392
Si       7.17368254       9.49872040      18.15665476  T      -0.07893932      -0.97756110       1.12101797
Si       2.10000000       3.98000000       2.32000000  F       0.00000000       0.00000000       0.00000000
Si       2.93488424       3.64705845       5.04649750  T       0.29862008      -0.22901120       0.14356034
Si       0.89000000       1.15000000       1.77000000  F       0.00000000       0.00000000       0.00000000
Si       8.33827541       1.05560503       5.59825884  T      -0.35481197       0.62304579       0.03807591
Si       5.44833578       1.98264439       4.43412060  T       1.53482673      -0.20409861      -0.03741297
Si       4.79322928       5.81406544       6.09480629  T       0.38959447       1.29701995       1.14475245
Si       0.03419806       9.12264623       3.91351645  T       1.15224709      -0.95884638       1.52768765
Si       6.19820146       5.19232517       3.67977685  T      -0.35208174      -0.76550027      -1.19395983
Si       5.42000000       9.77000000       2.06000000  F       0.00000000       0.00000000       0.00000000
Si       8.40598640       7.03880119       2.75296269  T       0.63660162      -0.14178064       0.31120179
Si       3.71307932       4.27917616       9.90914536  T      -0.08217596      -0.36717573       0.72963279
Si       2.31051190       1.60515313       8.97359098  T       0.29367980      -0.23235553      -0.96708329
Si       0.50941472       2.82298803       6.94015972  T      -1.73042125       0.26166446       0.13293679
Si       5.02335105       1.20870163       7.46657291  T      -0.19524960       0.67468986       0.41169694
Si       6.57100924       3.45182575       9.03661237  T      -0.47685049       0.44135391       0.02822768
Si       7.95797694       1.00469820      10.49485699  T       0.33248826      -0.80814227      -0.25002269
Si       3.53476346       8.23579264      10.42254684  T       0.96729468       0.04374472       0.15770032
Si       3.00968908       6.90673880       8.05581687  T      -1.96266486       0.05128189      -0.92349129
Si       0.93033738       6.45098615      10.98821311  T       0.31803433       0.14875774       0.60993814
Si       0.25407026       5.79559701       8.02242924  T       1.81075261       0.13303736      -2.54007908
Si       5.90723719       7.05819017      11.53796167  T      -0.19134990      -0.56595093       1.66657990
Si       7.42699015       6.07692396       7.80771087  T       0.44941698       0.51452132      -1.29747943
Si       7.34143758       9.30556943       7.99296306  T       1.19026217      -0.50808202       1.96476342
Si       7.93000000       1.02000000       0.50000000  F       0.00000000       0.00000000       0.00000000
Si       0.91000000       6.44000000       0.98000000  F       0.00000000       0.00000000       0.00000000
Si       5.91000000       7.08000000       1.49000000  F       0.00000000       0.00000000       0.00000000
C        4.95502312       5.01329076      25.33981359  T      -0.01108708       0.13765480     -13.18093852
F        5.80283248       6.05476007      25.34118249  T      -0.04453384       0.31263069     -20.81484859
F        5.80872149       3.93824643      25.34120104  T       0.05554161      -0.40358877     -20.80541571
153
Lattice="10.0 0.0 0.0 0.0 10.0 0.0 0.0 0.0 43.74" Properties=species:S:1:pos:R:3:move_mask:L:1:momenta:R:3 etch=trj_CF2_30eV_case1 idx=0 index=0 source=trj_CF2_30eV_case1/0000/OUTCAR converged=T time_fs=14.0 pbc="T T T"
O        2.24137047       4.55440806      13.84065540  T      -0.71783011       1.35747687       0.33759582
O        1.48505233       2.46116027      12.50718256  T      -0.07007485       0.33597188      -1.38508785
O        3.88147140       2.68327892      14.21084323  T      -0.52441753      -0.85805976       0.65036787
O        3.82014411       4.58472955      16.08946583  T      -0.30532886       0.11880610       0.46622213
O        1.64627273       2.88312166      15.84601202  T       0.35195988       0.00700398       0.82561681
O        5.07487966       1.65522447      16.08974675  T      -0.42430444       0.40794595       0.17523296
O        5.19779228       0.84910833      13.25415514  T      -1.32685428       0.68538638       0.19947269
O        6.15761976       3.60933562      14.04378235  T      -0.04950084      -0.22200549       0.20915718
O        7.08034576       1.36023060      14.65655032  T       0.07545367       0.73141850       0.69723272
O        9.04646910       2.27789785      16.30135517  T      -0.41418696      -0.02401942       0.97838916
O        9.54654306       0.42361421      14.75097609  T       0.49563513      -0.04059145       0.47837263
O        0.89516416       9.75463085      12.64216487  T       0.48794765      -0.39191890      -0.17121769
O        1.16915525       8.23309048      14.62869626  T      -1.08661770       0.29968049      -0.27389057
O        9.86400322       6.98281069      12.10833203  T       0.57669547      -0.19987114       1.39774666
O        5.18741157       6.18104122      14.55923288  T       0.85859566      -0.05550300       0.59347119
O        5.62769859       5.60589487      12.18690839  T       0.61348915      -0.51453210       0.07404154
O        7.78100701       5.80835187      13.63692531  T      -0.14404614       0.34623119       0.10616615
O        5.59551482       8.26922434      12.63980088  T      -0.22009300       0.92119551      -0.61608866
O        8.58278458       8.38632836      13.63523733  T       0.75086221      -0.26480872      -0.09799565
O        2.42941574       5.20438201      21.46453875  T      -0.09567649      -0.43053635       0.58334000
O        0.20102472       6.17988987      22.77103096  T      -0.22710399      -0.23929637       0.17332166
O        1.84975673       0.14585291      19.98944451  T       0.36361267       0.42385824       0.69851891
O        2.20958424       2.98631980      19.92862171  T       0.75568219       0.34822428       0.69661664
O        3.45296397       1.26674170      18.20592219  T       0.09163036       0.31481442       0.08911116
O        0.90404563       1.52373200      18.02503036  T      -0.44885101       0.86305494       0.31434653
O        0.40532903       4.11944369      17.75697272  T       0.10654169      -0.36288259       0.35688958
O        9.09266661       1.35573642      21.41105974  T       0.05476587       0.14536142       0.41231482
O        5.41563226       2.98534699      18.33023016  T       0.04107170       0.61575055      -1.03637559
O        4.63203162       3.95465996      20.62312417  T       0.55926488      -0.28617868      -0.03559943
O        7.08647284       2.69705639      20.24734807  T      -0.40631232       0.36720973       0.78373895
O        6.42659508       0.44484373      21.42721314  T      -0.19475017       0.73811929       0.34357444
O        6.62142692       5.22583433      19.38911741  T      -0.24292132      -0.21742756       0.04167360
O        7.93129723       9.80973458      16.69776353  T       0.31647233       0.02093243      -0.19007248
O        3.84141172       7.01686072      16.86927185  T      -0.37419617      -0.44078180      -0.01584470
O        3.73634701       9.41786892      21.42689355  T       0.73874892      -0.12668633      -0.14746615
O        3.20493847       7.96872305      19.11240708  T       0.20023191       0.37513436       0.34804684
O        1.25365589       6.63134946      17.74929644  T      -0.41119636       0.31554182      -0.60115832
O        3.20728454       5.26458082      18.88684104  T      -0.06141670      -0.01512195      -0.21101853
O        0.35028811       5.55353149      20.06426567  T      -0.57047860       0.37068988       0.72251486
O        1.52012560       7.68198374      21.07002372  T      -0.27112250       0.42483287       0.83495068
O        4.79550631       8.47859969      21.94359506  T       0.48111227      -0.03904237       0.77309293
O        8.01469094       0.20589944      19.37059720  T       0.03309417      -0.20551240      -0.27728473
O        6.92562819       8.83716969      23.74958018  T      -0.16754551      -0.19168070      -0.26025022
O        6.22175825       5.76007635      16.89341703  T       0.14040818       0.44187118       0.27690487
O        5.76215994       0.28558501      18.19202841  T      -0.16915693      -0.55374011       0.26621771
O        8.69349862       5.99688422      17.90938160  T      -0.40350138       0.54194310       0.04512164
O        6.97708215       7.89659633      18.41276657  T      -0.09541187       0.21090720      -0.29989810
O        2.20256253       4.57516070       3.81599893  T      -1.42242860       1.62266225       0.08246787
O        1.48403564       2.43784165       2.47995709  T       0.18689631       0.28201834      -1.94991322
O        3.90255787       2.70557257       4.18281745  T      -0.14351120      -0.30427319      -0.04682471
O        3.68201523       4.53729025       6.12589714  T       0.25695768      -0.54549090      -0.26306268
O        1.68071338       2.92274033       5.81287639  T      -0.58621504      -0.00590014       0.05237791
O        4.84654857       1.32563686       5.84112073  T       0.53589266      -0.00311932      -0.25964580
O        5.23244194       0.83826689       3.22468559  T      -0.50289125       0.48208066      -0.46079711
O        6.16611471       3.62185034       4.04331829  T       0.14332970      -0.20207300       0.24284093
O        7.08513162       1.37917110       4.68710070  T       0.05742730       1.18897599       1.21850086
O        9.05683636       2.42493759       6.31107209  T       1.59060706      -0.71823435       0.90185077
O        9.58813490       0.46360067       4.69849544  T       0.92549664       1.03432619      -0.35603200
O        0.91029345       9.78072354       2.59194457  T       0.76831959      -0.35590810      -0.85572788
O        1.14936362       8.24267169       4.60758389  T      -1.33176040       0.31725627      -0.62714104
O        9.87000000       6.98000000       2.02000000  F       0.00000000       0.00000000       0.00000000
O        5.19374087       6.13847826       4.55788456  T       0.91029956      -0.84499004       0.60605025
O        5.59000000       5.63000000       2.17000000  F       0.00000000       0.00000000       0.00000000
O        7.77708221       5.81138179       3.61818127  T      -0.20686375       0.30939539      -0.19852281
O        5.60423228       8.23522827       2.60899383  T      -0.11664878       0.72723905      -1.39517919
O        8.57193874       8.37790595       3.60799727  T       0.74304830      -0.17043683      -0.49800982
O        3.50198322       4.17017789      11.51497247  T      -0.72674813      -0.19854663      -0.24280576
O        1.13885679       4.86459901      11.36334381  T      -0.11143722      -0.30600916       0.24508291
O        1.72380173       0.90294556      10.37516927  T      -0.05584514      -0.23595555       0.14355555
O        2.78107031       3.13005580       9.31745583  T      -0.45510685       0.30326740      -0.23231109
O        3.55098558       0.99420756       8.19154313  T       0.10627467       0.52888997       0.70839902
O        1.03901644       1.62989994       7.94480594  T      -0.67945060      -0.49371384       0.29856476
O        0.43485295       4.16461569       7.88151904  T       0.08606262       0.14306436      -0.16034442
O        9.24950297       1.31394849      11.38007529  T      -0.35778657       0.05789957      -1.01760238
O        5.95722104       2.56542160       7.80052534  T       0.59966047      -0.12356770       0.24341711
O        5.27545499       4.04120679       9.72732228  T      -0.06361841       0.34504315       0.55183285
O        7.36828034       2.45626615      10.03587706  T       0.62533752       0.16716335       0.09601524
O        6.75523381       0.17688314      11.33227563  T      -0.85605703      -0.01150004       0.00511823
O        7.50193419       4.82797985       8.93128983  T      -0.35586027      -0.42795872      -0.85434417
O        8.08366827       9.76781314       6.58298297  T      -0.33594444       0.62005271       0.05986456
O        4.10832787       7.03527101       6.81641490  T       0.15334795       0.10245025      -0.08489220
O        3.98382233       9.58572737      11.21627713  T       0.67942443      -0.18132387      -0.68942640
O        3.05840110       8.33068273       8.85135301  T      -0.08191727      -0.40964719      -0.30132083
O        1.53246001       6.60607633       7.46579711  T      -0.03569279      -0.55242490      -0.43325051
O        3.34019366       5.60909075       9.04780588  T      -0.32514036       0.37963881       0.52827769
O        0.16558724       6.46172225       9.54954327  T      -0.68077330      -0.78946221      -0.04704303
O        2.24594177       7.37650579      11.11444282  T      -0.01618898      -0.42298254       0.54132059
O        4.94516402       7.38274595      10.23444385  T      -0.55293605       0.18588071       0.86945815
O        8.18247414       0.02765889       9.16525508  T       0.24694844      -0.22517778      -0.37511342
O        7.51771544       7.20374795      11.33118974  T      -0.19010102      -0.16234037      -0.73665433
O        6.19824984       5.50741269       6.87666686  T       0.32864879       0.16372798      -0.13556696
O        5.81353581       9.87743107       8.01467708  T      -0.03942818      -0.30429110      -0.38207966
O        8.88874853       6.08379076       7.14501892  T      -0.51023923       0.10417763       0.92335042
O        7.24337029       7.67757499       8.17579123  T      -0.57856225       0.03879270       0.13283279
O        3.55000000       4.18000000       1.53000000  F       0.00000000       0.00000000       0.00000000
O        1.14000000       4.89000000       1.35000000  F       0.00000000       0.00000000       0.00000000
O        9.29000000       1.31000000       1.44000000  F       0.00000000       0.00000000       0.00000000
O        6.84000000       0.20000000       1.30000000  F       0.00000000       0.00000000       0.00000000
O        3.95000000       9.60000000       1.25000000  F       0.00000000       0.00000000       0.00000000
O        2.28000000       7.42000000       1.08000000  F       0.00000000       0.00000000       0.00000000
O        7.52000000       7.21000000       1.37000000  F       0.00000000       0.00000000       0.00000000
Si       2.11696517       3.96132604      12.32180822  T       0.39292734      -0.42823220       0.24732106
Si       2.90626290       3.63524416      15.06411043  T       0.40158715      -0.33055677      -0.85026772
Si       0.87194238       1.15103773      11.73185340  T      -0.76757214      -0.09634818      -1.09344616
Si       8.30065104       0.98660508      15.60722199  T       0.96186618       1.19374856       0.05769736
Si       5.46173717       2.02074877      14.42924606  T       1.83686551       1.08666550       0.14340146
Si       4.76637075       5.90393964      16.09228950  T      -0.54035834      -1.58945702       0.52234175
Si       0.01693436       9.14168232      13.87667480  T       0.36326926      -0.24639106       0.34241690
Si       6.19490006       5.20060541      13.65038128  T      -0.34193838      -0.54626603      -1.68764339
Si       5.42183153       9.75971204      12.10410952  T      -0.37319366       0.11629249       1.64531339
Si       8.39565385       7.03563532      12.71929989  T       0.03647104      -0.14210843      -0.65344152
Si       3.06811496       4.31066331      20.21465401  T       1.23410580      -0.37595059      -0.17778842
Si       2.11029113       1.47052166      19.09239055  T      -0.68330655      -0.82992688      -1.11347948
Si       0.48414625       2.67879506      16.94978132  T      -0.05274556      -0.33241793      -1.86849288
Si       4.92726354       1.58063649      17.64625210  T       0.47577624      -0.59644479      -1.05713801
Si       5.95790873       3.76172243      19.68367230  T       0.12996307      -0.53207611       0.43085949
Si       7.66829317       1.21864953      20.60057137  T       1.04862521       1.11986009      -1.80116615
Si       2.57502307       8.74380757      20.36131470  T      -0.03687755       0.31735128      -0.45296603
Si       2.89943973       6.70345219      18.13212527  T       1.19439283       0.85193842       0.47782996
Si       1.08477409       6.14931145      21.36549540  T       0.21857735      -0.49701310      -1.84545481
Si       0.18082000       5.56511199      18.38735599  T      -1.01017217      -0.33595288      -0.09609310
Si       6.15218266       9.23870744      22.46450264  T      -2.21072617      -1.14449794       0.13635187
Si       7.12563536       6.25109362      18.15007645  T      -0.32574360       0.36672365      -0.07695157
Si       7.17346160       9.49536056      18.16033779  T      -0.04712206      -0.94081989       0.98079922
Si       2.10000000       3.98000000       2.32000000  F       0.00000000       0.00000000       0.00000000
Si       2.93562875       3.64617625       5.04678010  T       0.12383864      -0.27537851       0.01642506
Si       0.89000000       1.15000000       1.77000000  F       0.00000000       0.00000000       0.00000000
Si       8.33728220       1.05781331       5.59845707  T      -0.20865077       0.63791049       0.07622818
Si       5.45381719       1.98196439       4.43389758  T       1.59721138      -0.18372404      -0.09049372
Si       4.79461130       5.81830954       6.09876484  T       0.40122497       1.12490679       1.11591063
Si       0.03817342       9.11950595       3.91885649  T       1.11643227      -0.83106140       1.52187039
Si       6.19700087       5.18955692       3.67552279  T      -0.33330223      -0.81701397      -1.23658423
Si       5.42000000       9.77000000       2.06000000  F       0.00000000       0.00000000       0.00000000
Si       8.40826308       7.03825171       2.75397849  T       0.66453340      -0.17249999       0.26844804
Si       3.71283673       4.27790291       9.91170703  T      -0.05780388      -0.35968762       0.73235308
Si       2.31127790       1.60449482       8.97035810  T       0.14017847      -0.14222856      -0.87843505
Si       0.50343353       2.82381589       6.94071967  T      -1.68233706       0.21101343       0.18928503
Si       5.02270516       1.21106855       7.46794419  T      -0.17249755       0.67698705       0.37143237
Si       6.56943377       3.45338412       9.03680244  T      -0.42244691       0.44876671       0.08187401
Si       7.95879876       1.00174051      10.49391363  T       0.13327882      -0.88207759      -0.29018641
Si       3.53801742       8.23587364      10.42311362  T       0.88962861       0.00202272       0.16533077
Si       3.00289869       6.90683399       8.05255733  T      -1.91474562       0.00272082      -0.93802654
Si       0.93124837       6.45136379      10.99048019  T       0.20071552       0.06505605       0.68482893
Si       0.26032819       5.79599764       8.01361567  T       1.76134298       0.09408609      -2.49343995
Si       5.90651719       7.05632248      11.54380060  T      -0.22050735      -0.49936510       1.66881666
Si       7.42845099       6.07869480       7.80326771  T       0.38258011       0.49701153      -1.23922314
Si       7.34560987       9.30377448       7.99970895  T       1.19124734      -0.51775722       1.88663903
Si       7.93000000       1.02000000       0.50000000  F       0.00000000       0.00000000       0.00000000
Si       0.91000000       6.44000000       0.98000000  F       0.00000000       0.00000000       0.00000000
Si       5.91000000       7.08000000       1.49000000  F       0.00000000       0.00000000       0.00000000
C        4.95559974       5.01433642      25.23201206  T       0.15242480       0.11723991     -13.18266030
F        5.80240305       6.05623657      25.23356324  T      -0.12143125       0.25798766     -20.81507306
F        5.80877567       3.93636138      25.23363993  T      -0.03515428      -0.32427896     -20.80208916
153
Lattice="10.0 0.0 0.0 0.0 10.0 0.0 0.0 0.0 43.74" Properties=species:S:1:pos:R:3:move_mask:L:1:momenta:R:3 etch=trj_CF2_30eV_case1 idx=0 index=0 source=trj_CF2_30eV_case1/0000/OUTCAR converged=T time_fs=15.0 pbc="T T T"
O        2.23695026       4.56273204      13.84283257  T      -0.72079843       1.35117339       0.37110993
O        1.48448217       2.46303175      12.49846190  T      -0.11615229       0.27246834      -1.45438188
O        3.87825257       2.67783498      14.21490260  T      -0.52310371      -0.91476571       0.67085951
O        3.81798702       4.58514258      16.09227313  T      -0.39838256       0.01352578       0.44725581
O        1.64882136       2.88327361      15.85088942  T       0.47974646       0.04281376       0.76050054
O        5.07229985       1.65784630      16.09018178  T      -0.41531460       0.44598621      -0.03614359
O        5.18947029       0.85345078      13.25547812  T      -1.38256521       0.72861493       0.23146784
O        6.15730821       3.60811651      14.04502069  T      -0.05198657      -0.17383409       0.19342479
O        7.08074894       1.36488093      14.66087970  T       0.05647505       0.78291314       0.71250641
O        9.04391163       2.27792281      16.30755622  T      -0.41899643       0.03301503       1.04063639
O        9.54987680       0.42318161      14.75374302  T       0.58989841      -0.09963045       0.42274645
O        0.89817062       9.75241719      12.64095675  T       0.49018307      -0.32800608      -0.22219832
O        1.16253674       8.23478380      14.62714665  T      -1.06632189       0.24963902      -0.22895403
O        9.86806791       6.98138583      12.11680596  T       0.74712203      -0.26459081       1.36121896
O        5.19285545       6.18061166      14.56292559  T       0.91441301      -0.08537412       0.60857059
O        5.63137764       5.60266556      12.18710011  T       0.58296582      -0.53702719      -0.01414513
O        7.77997806       5.81049372      13.63754739  T      -0.19163540       0.35105431       0.09585144
O        5.59421445       8.27434195      12.63617486  T      -0.20262093       0.74055713      -0.56203125
O        8.58735515       8.38467761      13.63461233  T       0.73612199      -0.27276284      -0.10583554
O        2.42890750       5.20161009      21.46806915  T      -0.06950170      -0.47229518       0.56504117
O        0.19974654       6.17836679      22.77188706  T      -0.18810512      -0.25680518       0.10366741
O        1.85199893       0.14844503      19.99387601  T       0.36631308       0.42049275       0.74438993
O        2.21410387       2.98766994      19.93264929  T       0.71539823       0.08922964       0.61398250
O        3.45331049       1.26868979      18.20657616  T       0.02172716       0.31943459       0.12335886
O        0.90112797       1.52909838      18.02698360  T      -0.50201108       0.88393354       0.32127590
O        0.40597528       4.11685246      17.75909592  T       0.10332049      -0.48009420       0.33479839
O        9.09299872       1.35666884      21.41361133  T       0.05308775       0.15840610       0.41804942
O        5.41598708       2.98923535      18.32388231  T       0.07498548       0.64978586      -1.03000063
O        4.63543758       3.95289305      20.62299435  T       0.54898319      -0.28898052      -0.00587905
O        7.08400562       2.69935913      20.25225785  T      -0.39633753       0.38248378       0.81486663
O        6.42557596       0.44941803      21.42939331  T      -0.13628858       0.75006094       0.36711282
O        6.62000680       5.22467509      19.38927467  T      -0.21919555      -0.15941935       0.00921070
O        7.93307314       9.80977098      16.69699732  T       0.26145768      -0.00865720      -0.05880117
O        3.83924740       7.01413154      16.86899874  T      -0.32957165      -0.44773552      -0.07400873
O        3.74096405       9.41701252      21.42590887  T       0.76444989      -0.15245719      -0.17356459
O        3.20627875       7.97104581      19.11447502  T       0.23681508       0.38076449       0.32437615
O        1.25152895       6.63334353      17.74573148  T      -0.28094040       0.33291794      -0.55806642
O        3.20690346       5.26468844      18.88544951  T      -0.06248960       0.05039321      -0.24132176
O        0.34639488       5.55573002      20.06812265  T      -0.69940213       0.34417353       0.52944792
O        1.51865544       7.68501307      21.07512103  T      -0.20723131       0.56135196       0.82464440
O        4.79804846       8.47813061      21.94829050  T       0.34198000      -0.11615760       0.75422906
O        8.01501841       0.20468856      19.36896094  T       0.07432194      -0.18822573      -0.25499734
O        6.92439260       8.83599793      23.74766638  T      -0.23512869      -0.19029694      -0.36299843
O        6.22240000       5.76284985      16.89499036  T       0.06739662       0.46098869       0.23467084
O        5.76108409       0.28209635      18.19369864  T      -0.18154712      -0.58195794       0.27742536
O        8.69110458       6.00025985      17.90970604  T      -0.37500675       0.55702061       0.06067345
O        6.97645120       7.89763149      18.41094231  T      -0.11037426       0.12442171      -0.29359453
O        2.19378194       4.58503779       3.81671277  T      -1.43605882       1.59118986       0.14952729
O        1.48529576       2.43970817       2.46768733  T       0.22412143       0.32635217      -2.04562877
O        3.90166353       2.70366887       4.18244833  T      -0.14783536      -0.31542176      -0.07364956
O        3.68417776       4.53451618       6.12458790  T       0.44820095      -0.35670236      -0.16257507
O        1.67719747       2.92281054       5.81306484  T      -0.55818542       0.02930710       0.00872652
O        4.84988822       1.32554355       5.83999480  T       0.55146929      -0.02712019      -0.10613188
O        5.22936000       0.84135722       3.22184571  T      -0.49992547       0.52432891      -0.46382470
O        6.16702546       3.62055312       4.04480150  T       0.15328247      -0.22059850       0.23957430
O        7.08530024       1.38675122       4.69458396  T      -0.00285721       1.27987593       1.21734128
O        9.06632542       2.42025585       6.31653771  T       1.49325846      -0.80790287       0.87552933
O        9.59382864       0.47004962       4.69619745  T       0.92694523       1.06605356      -0.39223001
O        0.91507160       9.77840209       2.58665978  T       0.78768815      -0.39971879      -0.86540868
O        1.14141455       8.24427094       4.60393562  T      -1.25171518       0.19893982      -0.55745561
O        9.87000000       6.98000000       2.02000000  F       0.00000000       0.00000000       0.00000000
O        5.19944516       6.13320337       4.56168991  T       0.94723298      -0.87238181       0.63266556
O        5.59000000       5.63000000       2.17000000  F       0.00000000       0.00000000       0.00000000
O        7.77567524       5.81320652       3.61697142  T      -0.25179524       0.28399025      -0.19535232
O        5.60350522       8.23957177       2.60035082  T      -0.12008573       0.68482678      -1.41775053
O        8.57662635       8.37706475       3.60500386  T       0.78274981      -0.10232778      -0.47621105
O        3.49766245       4.16893865      11.51353094  T      -0.67854074      -0.20498568      -0.22547643
O        1.13810167       4.86283793      11.36486417  T      -0.13452818      -0.26692305       0.25013931
O        1.72365600       0.90153420      10.37564454  T       0.00916113      -0.22363391       0.00956250
O        2.77805924       3.13164056       9.31588754  T      -0.52517055       0.21311936      -0.27835471
O        3.55219774       0.99736739       8.19569779  T       0.29042919       0.49935937       0.64339891
O        1.03474208       1.62691242       7.94666861  T      -0.71231615      -0.47835702       0.30781991
O        0.43538684       4.16568203       7.88050979  T       0.08789550       0.20415508      -0.16879244
O        9.24765063       1.31429533      11.37389223  T      -0.24344388       0.05489993      -0.99466688
O        5.96085241       2.56449413       7.80192914  T       0.58239262      -0.17849160       0.21364274
O        5.27484351       4.04342697       9.73090424  T      -0.13461872       0.37752109       0.61459573
O        7.37220479       2.45720827      10.03643667  T       0.65208354       0.13965981       0.08548603
O        6.75046955       0.17711379      11.33187501  T      -0.69443010       0.08712985      -0.13608783
O        7.49972114       4.82547060       8.92575748  T      -0.36465576      -0.38836209      -0.94773596
O        8.08143935       9.77159217       6.58363488  T      -0.38988448       0.61039219       0.15311257
O        4.10880285       7.03625368       6.81632175  T      -0.00048235       0.21890418       0.05574043
O        3.98806489       9.58470679      11.21198186  T       0.70210744      -0.14975921      -0.70872911
O        3.05785109       8.32811618       8.84955304  T      -0.09735497      -0.42588133      -0.28372229
O        1.53235376       6.60277351       7.46275154  T       0.00201353      -0.52145670      -0.56162930
O        3.33807134       5.61170389       9.05095859  T      -0.36621988       0.47092250       0.49838301
O        0.16139660       6.45664539       9.54898561  T      -0.68234115      -0.86401253      -0.13432858
O        2.24632344       7.37419347      11.11772518  T       0.14172936      -0.32904119       0.52723535
O        4.94201823       7.38365410      10.24014883  T      -0.46917914       0.10772148       0.98919817
O        8.18421988       0.02644614       9.16336750  T       0.32338012      -0.16867899      -0.23669379
O        7.51644021       7.20270066      11.32666089  T      -0.22490736      -0.17895129      -0.73679449
O        6.20026749       5.50845023       6.87576844  T       0.32812607       0.17428271      -0.15718863
O        5.81324852       9.87563769       8.01224537  T      -0.05326262      -0.27937652      -0.40967281
O        8.88607042       6.08446918       7.15058650  T      -0.35768782       0.11708655       0.88742546
O        7.23973085       7.67771919       8.17663630  T      -0.60649002       0.00750964       0.14249689
O        3.55000000       4.18000000       1.53000000  F       0.00000000       0.00000000       0.00000000
O        1.14000000       4.89000000       1.35000000  F       0.00000000       0.00000000       0.00000000
O        9.29000000       1.31000000       1.44000000  F       0.00000000       0.00000000       0.00000000
O        6.84000000       0.20000000       1.30000000  F       0.00000000       0.00000000       0.00000000
O        3.95000000       9.60000000       1.25000000  F       0.00000000       0.00000000       0.00000000
O        2.28000000       7.42000000       1.08000000  F       0.00000000       0.00000000       0.00000000
O        7.52000000       7.21000000       1.37000000  F       0.00000000       0.00000000       0.00000000
Si       2.11824302       3.95992472      12.32278330  T       0.33531866      -0.37102227       0.31132352
Si       2.90760110       3.63417022      15.06112587  T       0.36205165      -0.28176622      -0.85495837
Si       0.86916397       1.15063281      11.72806657  T      -0.82043562      -0.13594540      -1.07093131
Si       8.30400804       0.99077326      15.60749626  T       0.95615977       1.18663126       0.09962223
Si       5.46825446       2.02460183      14.42982378  T       1.88726863       1.11515837       0.18723616
Si       4.76459075       5.89833299      16.09417849  T      -0.47550729      -1.61394816       0.55725446
Si       0.01812466       9.14099443      13.87789207  T       0.31629216      -0.14457576       0.35139724
Si       6.19378570       5.19856639      13.64463433  T      -0.29354710      -0.61991396      -1.59260599
Si       5.42031009       9.76041057      12.10996382  T      -0.49755416       0.28773014       1.69933363
Si       8.39572226       7.03513782      12.71700271  T       0.00294399      -0.14215462      -0.65992483
Si       3.07261122       4.30947275      20.21417654  T       1.33622175      -0.30371645      -0.09427299
Si       2.10802595       1.46791804      19.08851693  T      -0.61014371      -0.65642360      -1.09944804
Si       0.48387460       2.67777895      16.94328996  T      -0.10266173      -0.24719219      -1.83906154
Si       4.92903168       1.57855485      17.64275461  T       0.53470820      -0.59296224      -0.93894154
Si       5.95831707       3.75974704      19.68500955  T       0.10351443      -0.59681336       0.33096643
Si       7.67189078       1.22251677      20.59432320  T       1.00653347       1.08919198      -1.76754630
Si       2.57480738       8.74488246      20.35996370  T      -0.08671181       0.29736940      -0.31650549
Si       2.90331674       6.70634034      18.13385385  T       1.01887108       0.79796190       0.51017072
Si       1.08559595       6.14753498      21.35919756  T       0.25241874      -0.51672538      -1.74999171
Si       0.17726170       5.56400128      18.38711667  T      -1.02236458      -0.29848873      -0.04177125
Si       6.14462218       9.23486216      22.46509800  T      -2.10594019      -1.04841331       0.20357462
Si       7.12439484       6.25238274      18.14993120  T      -0.38428757       0.36968113      -0.00477642
Si       7.17335422       9.49215534      18.16349274  T      -0.01410788      -0.88950026       0.81982441
Si       2.10000000       3.98000000       2.32000000  F       0.00000000       0.00000000       0.00000000
Si       2.93573477       3.64513479       5.04660615  T      -0.06531098      -0.31933911      -0.11640869
Si       0.89000000       1.15000000       1.77000000  F       0.00000000       0.00000000       0.00000000
Si       8.33684006       1.06005618       5.59879703  T      -0.04042841       0.64270456       0.11892527
Si       5.45949333       1.98136499       4.43348683  T       1.64595844      -0.15810595      -0.14427384
Si       4.79603808       5.82190901       6.10259641  T       0.41486487       0.92984410       1.07278413
Si       0.04198094       9.11686614       3.92413827  T       1.05638987      -0.67297369       1.49445417
Si       6.19587643       5.18661316       3.67113965  T      -0.30865898      -0.86579368      -1.26762267
Si       5.42000000       9.77000000       2.06000000  F       0.00000000       0.00000000       0.00000000
Si       8.41063016       7.03759479       2.75483434  T       0.68822482      -0.20300844       0.22008399
Si       3.71266577       4.27666731       9.91425057  T      -0.04185060      -0.34566057       0.71900628
Si       2.31147114       1.60416698       8.96746249  T      -0.03277169      -0.04413532      -0.77503944
Si       0.49769129       2.82446124       6.94149589  T      -1.59362877       0.15777218       0.25670778
Si       5.02215393       1.21342646       7.46916601  T      -0.14106425       0.66952838       0.32653867
Si       6.56806221       3.45495879       9.03719291  T      -0.36074675       0.45062173       0.14267091
Si       7.95888810       0.99853564      10.49282369  T      -0.08522743      -0.94910947      -0.33348520
Si       3.54096527       8.23580399      10.42369661  T       0.79266770      -0.04226890       0.16682188
Si       2.99632703       6.90675630       8.04926963  T      -1.83797723      -0.04724877      -0.93954780
Si       0.93173133       6.45143032      10.99299225  T       0.07422631      -0.02859595       0.74946402
Si       0.26635427       5.79624422       8.00502384  T       1.67855105       0.04517135      -2.41373858
Si       5.90569420       7.05471162      11.54961495  T      -0.25015888      -0.41953624       1.65272104
Si       7.42964774       6.08039472       7.79906489  T       0.29882332       0.47417503      -1.16054155
Si       7.34974456       9.30195119       8.00612597  T       1.16869388      -0.52424917       1.77737113
Si       7.93000000       1.02000000       0.50000000  F       0.00000000       0.00000000       0.00000000
Si       0.91000000       6.44000000       0.98000000  F       0.00000000       0.00000000       0.00000000
Si       5.91000000       7.08000000       1.49000000  F       0.00000000       0.00000000       0.00000000
C        4.95751171       5.01519742      25.12419467  T       0.31418855       0.09255074     -13.18481837
F        5.80158089       6.05742533      25.12594378  T      -0.19581492       0.20179959     -20.81495569
F        5.80835581       3.93490233      25.12609583  T      -0.12718415      -0.23931517     -20.79888337
153
Lattice="10.0 0.0 0.0 0.0 10.0 0.0 0.0 0.0 43.74" Properties=species:S:1:pos:R:3:move_mask:L:1:momenta:R:3 etch=trj_CF2_30eV_case1 idx=0 index=0 source=trj_CF2_30eV_case1/0000/OUTCAR converged=T time_fs=16.0 pbc="T T T"
O        2.23253239       4.57096979      13.84520608  T      -0.71715412       1.32950003       0.40137887
O        1.48362228       2.46449611      12.48933824  T      -0.16420667       0.20384714      -1.51626315
O        3.87505809       2.67205321      14.21906881  T      -0.51660900      -0.96790865       0.68510513
O        3.81524413       4.58487590      16.09494824  T      -0.49568646      -0.10202001       0.42333876
O        1.65217502       2.88364928      15.85532518  T       0.61345958       0.07961304       0.68230971
O        5.06978704       1.66069853      16.08928504  T      -0.40263490       0.48284203      -0.25681280
O        5.18083163       0.85804875      13.25699643  T      -1.42990592       0.76854098       0.26298078
O        6.15698138       3.60721293      14.04614945  T      -0.05448450      -0.11949736       0.17353805
O        7.08104721       1.36983777      14.66529386  T       0.04166082       0.83111516       0.72495174
O        9.04132207       2.27831047      16.31412178  T      -0.42490989       0.09380640       1.09688384
O        9.55377867       0.42240112      14.75616816  T       0.68008374      -0.15331363       0.36769613
O        0.90117026       9.75061332      12.63943954  T       0.48568726      -0.25882485      -0.27157629
O        1.15609263       8.23613280      14.62590435  T      -1.02994497       0.18760976      -0.17389232
O        9.87316846       6.97956006      12.12503510  T       0.91298077      -0.33018527       1.31868303
O        5.19863554       6.17998312      14.56669678  T       0.96801883      -0.12034006       0.61907692
O        5.63483736       5.59930444      12.18671058  T       0.54227533      -0.55754754      -0.11486920
O        7.77864996       5.81265835      13.63809582  T      -0.24127437       0.35370874       0.08217253
O        5.59303532       8.27827042      12.63293017  T      -0.18072744       0.53533542      -0.49207664
O        8.59180469       8.38298078      13.63393519  T       0.71157368      -0.27982021      -0.11500996
O        2.42856535       5.19858471      21.47146015  T      -0.04174740      -0.51297776       0.53798049
O        0.19872589       6.17673706      22.77228573  T      -0.14339974      -0.27403885       0.02454377
O        1.85425011       0.15101711      19.99857701  T       0.36659801       0.41759566       0.78610769
O        2.21835986       2.98739975      19.93614927  T       0.67051106      -0.17795564       0.52529307
O        3.45323953       1.27066068      18.20742911  T      -0.04361944       0.32228176       0.15353850
O        0.89787792       1.53457416      18.02896873  T      -0.55696341       0.89867577       0.32476320
O        0.40659059       4.11356482      17.76108582  T       0.09639082      -0.58884384       0.31377565
O        9.09331503       1.35768156      21.41618428  T       0.04961087       0.17147830       0.41923161
O        5.41655729       2.99331359      18.31759659  T       0.11112939       0.67746034      -1.01635553
O        4.63876066       3.95111571      20.62305991  T       0.53245455      -0.28960880       0.02796876
O        7.08161666       2.70174842      20.25734593  T      -0.38089455       0.39539565       0.84183420
O        6.42493002       0.45403418      21.43172584  T      -0.07342190       0.75177766       0.39317427
O        6.61873926       5.22388249      19.38922796  T      -0.19344894      -0.09844672      -0.02458860
O        7.93450349       9.80963406      16.69704517  T       0.20424265      -0.03524177       0.07439608
O        3.83737596       7.01136790      16.86835608  T      -0.27916980      -0.45208955      -0.13581323
O        3.74572502       9.41599580      21.42475965  T       0.78557814      -0.17878441      -0.20106118
O        3.20785019       7.97339102      19.11637862  T       0.27539049       0.38249797       0.29471602
O        1.25021009       6.63542505      17.74246450  T      -0.14863139       0.34386355      -0.50422905
O        3.20651979       5.26519913      18.88388967  T      -0.06222837       0.11566218      -0.26545097
O        0.34168640       5.55774588      20.07072771  T      -0.83540882       0.31154720       0.31604009
O        1.51758425       7.68886488      21.08014209  T      -0.14163250       0.69174756       0.81039708
O        4.79965708       8.47714978      21.95283447  T       0.17765604      -0.20553385       0.72398265
O        8.01561019       0.20359483      19.36747257  T       0.11900516      -0.16748101      -0.22932003
O        6.92274125       8.83482955      23.74512818  T      -0.30258561      -0.19071479      -0.46298464
O        6.22257520       5.76573024      16.89629068  T      -0.01113830       0.47664482       0.18832793
O        5.75992800       0.27844728      18.19543017  T      -0.19533937      -0.60590175       0.28614261
O        8.68890668       6.00371731      17.91012728  T      -0.33984578       0.56863739       0.07656436
O        6.97572434       7.89810785      18.40916921  T      -0.12664526       0.02948075      -0.28326741
O        2.18494714       4.59466228       3.81782749  T      -1.44022091       1.54051685       0.21269007
O        1.48679253       2.44185137       2.45485287  T       0.26387806       0.37192599      -2.13387413
O        3.90074206       2.70170431       4.18191153  T      -0.15243589      -0.32404124      -0.10129275
O        3.68751964       4.53291760       6.12390393  T       0.63991235      -0.16408328      -0.06048874
O        1.67386732       2.92310493       5.81298202  T      -0.52600268       0.06698140      -0.03571949
O        4.85331490       1.32530676       5.83982193  T       0.56431863      -0.04960698       0.04968041
O        5.22631482       0.84470145       3.21899452  T      -0.49094638       0.56462671      -0.46461390
O        6.16799605       3.61914088       4.04625218  T       0.16279822      -0.23948817       0.23219903
O        7.08509661       1.39488111       4.70203140  T      -0.06308278       1.36776406       1.20723203
O        9.07509931       2.41500766       6.32179202  T       1.35795267      -0.90254354       0.83318230
O        9.59949349       0.47668726       4.69368291  T       0.91616274       1.09587374      -0.42650106
O        0.91996082       9.77582269       2.58132150  T       0.80457354      -0.43971548      -0.87329991
O        1.13405368       8.24506668       4.60077745  T      -1.14044844       0.05575214      -0.46767933
O        9.87000000       6.98000000       2.02000000  F       0.00000000       0.00000000       0.00000000
O        5.20536546       6.12777595       4.56564317  T       0.98072148      -0.89467396       0.65407951
O        5.59000000       5.63000000       2.17000000  F       0.00000000       0.00000000       0.00000000
O        7.77398815       5.81485932       3.61578442  T      -0.29788720       0.25357452      -0.19118642
O        5.60275868       8.24360870       2.59161178  T      -0.12302568       0.62750096      -1.42640634
O        8.58153680       8.37666025       3.60215767  T       0.81545911      -0.02859209      -0.45031334
O        3.49367237       4.16766225      11.51221742  T      -0.61938156      -0.21069160      -0.20106401
O        1.13720573       4.86132756      11.36641529  T      -0.15718775      -0.22463848       0.25518583
O        1.72392023       0.90020063      10.37527321  T       0.07729812      -0.21073434      -0.13145346
O        2.77462989       3.13267855       9.31404151  T      -0.59096302       0.12599614      -0.32251048
O        3.55456299       1.00033071       8.19943120  T       0.48038670       0.46538419       0.57199607
O        1.03027635       1.62403716       7.94858147  T      -0.74177841      -0.45725280       0.31486671
O        0.43593284       4.16711809       7.87944201  T       0.09004624       0.26291883      -0.17953423
O        9.24653136       1.31462045      11.36787863  T      -0.11991784       0.05077102      -0.96289391
O        5.96436475       2.56323279       7.80314820  T       0.56118126      -0.23189420       0.18361374
O        5.27381563       4.04583436       9.73486307  T      -0.19852584       0.40580123       0.67427835
O        7.37627674       2.45798169      10.03691848  T       0.67330102       0.11248952       0.07064601
O        6.74671463       0.17795486      11.33060521  T      -0.52872359       0.18671956      -0.27697654
O        7.49746045       4.82322074       8.91965507  T      -0.37140661      -0.34374132      -1.03976045
O        8.07888478       9.77530339       6.58486665  T      -0.44176279       0.59820873       0.24823124
O        4.10830900       7.03796619       6.81710582  T      -0.16104466       0.33910233       0.19973540
O        3.99243885       9.58390229      11.20758540  T       0.72231164      -0.11099610      -0.72238326
O        3.05720489       8.32545913       8.84788265  T      -0.11319850      -0.43906671      -0.25908997
O        1.53249271       6.59969294       7.45887372  T       0.04385359      -0.48026858      -0.70408898
O        3.33569748       5.61486304       9.05392405  T      -0.40694310       0.55688586       0.46767477
O        0.15722967       6.45111732       9.54789977  T      -0.67298185      -0.93627587      -0.21853494
O        2.24768876       7.37247409      11.12091057  T       0.30312429      -0.23060177       0.50988888
O        4.93942746       7.38404735      10.24659038  T      -0.37265475       0.01846800       1.10894662
O        8.18646025       0.02559726       9.16237548  T       0.40775132      -0.10720298      -0.08434596
O        7.51495953       7.20154936      11.32216163  T      -0.25671371      -0.19619582      -0.72699181
O        6.20227448       5.50955302       6.87473618  T       0.32527843       0.18499050      -0.17909034
O        5.81289239       9.87400483       8.00965124  T      -0.06158043      -0.25224359      -0.43487396
O        8.88439732       6.08523146       7.15588722  T      -0.18388647       0.13154925       0.83665331
O        7.23592858       7.67766107       8.17754141  T      -0.63157202      -0.02696312       0.15239363
O        3.55000000       4.18000000       1.53000000  F       0.00000000       0.00000000       0.00000000
O        1.14000000       4.89000000       1.35000000  F       0.00000000       0.00000000       0.00000000
O        9.29000000       1.31000000       1.44000000  F       0.00000000       0.00000000       0.00000000
O        6.84000000       0.20000000       1.30000000  F       0.00000000       0.00000000       0.00000000
O        3.95000000       9.60000000       1.25000000  F       0.00000000       0.00000000       0.00000000
O        2.28000000       7.42000000       1.08000000  F       0.00000000       0.00000000       0.00000000
O        7.52000000       7.21000000       1.37000000  F       0.00000000       0.00000000       0.00000000
Si       2.11929669       3.95874204      12.32399153  T       0.26489260      -0.30349774       0.38044942
Si       2.90878678       3.63328307      15.05813815  T       0.31460034      -0.22396696      -0.85221551
Si       0.86620892       1.15008255      11.72436670  T      -0.86829392      -0.17942767      -1.04435004
Si       8.30733056       0.99488712      15.60792112  T       0.94241014       1.16268338       0.14362968
Si       5.47492243       2.02854066      14.43055694  T       1.92291011       1.13577519       0.23214102
Si       4.76305499       5.89266512      16.09618354  T      -0.40115747      -1.62472288       0.58855360
Si       0.01914146       9.14068374      13.87911854  T       0.26441912      -0.03113979       0.34733425
Si       6.19285616       5.19626916      13.63927480  T      -0.23651961      -0.69351584      -1.46673222
Si       5.41834931       9.76174900      12.11597778  T      -0.62360143       0.48131544       1.73641189
Si       8.39567750       7.03464210      12.71468433  T      -0.02778758      -0.14115632      -0.66585645
Si       3.07745515       4.30854296      20.21399834  T       1.43223755      -0.22770273      -0.00731738
Si       2.10603230       1.46594218      19.08471268  T      -0.52865335      -0.47175452      -1.07375718
Si       0.48342943       2.67707351      16.93694218  T      -0.15137682      -0.15505413      -1.78672807
Si       4.93099937       1.57649409      17.63970364  T       0.58958433      -0.58457490      -0.80302862
Si       5.95863343       3.75755308      19.68597145  T       0.07763318      -0.65667014       0.21648746
Si       7.67532265       1.22625515      20.58823158  T       0.95419349       1.04639834      -1.71183496
Si       2.57441605       8.74588882      20.35911680  T      -0.13697776       0.27843702      -0.16537614
Si       2.90654740       6.70902584      18.13569013  T       0.82569053       0.73659524       0.53904642
Si       1.08654536       6.14570989      21.35328612  T       0.29136220      -0.52464926      -1.62541760
Si       0.17368184       5.56302700      18.38705617  T      -1.02243970      -0.25833962       0.00558699
Si       6.13748838       9.23140776      22.46592177  T      -1.96761739      -0.92131143       0.26633584
Si       7.12294399       6.25367484      18.15004973  T      -0.44584168       0.36833772       0.07350957
Si       7.17336374       9.48915219      18.16605438  T       0.01965670      -0.82569809       0.64232885
Si       2.10000000       3.98000000       2.32000000  F       0.00000000       0.00000000       0.00000000
Si       2.93516327       3.64394954       5.04596605  T      -0.26235165      -0.35683523      -0.24904563
Si       0.89000000       1.15000000       1.77000000  F       0.00000000       0.00000000       0.00000000
Si       8.33701870       1.06229745       5.59929263  T       0.14540415       0.63693935       0.16497981
Si       5.46531448       1.98086353       4.43289048  T       1.67993495      -0.12783346      -0.19614054
Si       4.79751318       5.82479755       6.10625737  T       0.42839972       0.71995588       1.01908705
Si       0.04553767       9.11482933       3.92928733  T       0.97338025      -0.48673135       1.44618053
Si       6.19484744       5.18350406       3.66666923  T      -0.27886495      -0.91150977      -1.28638076
Si       5.42000000       9.77000000       2.06000000  F       0.00000000       0.00000000       0.00000000
Si       8.41307212       7.03683311       2.75551393  T       0.70726701      -0.23220438       0.16801640
Si       3.71253128       4.27549201       9.91671768  T      -0.03750747      -0.32524425       0.68849915
Si       2.31103430       1.60419017       8.96494784  T      -0.21882799       0.05767512      -0.66147759
Si       0.49233063       2.82491934       6.94252772  T      -1.46428327       0.10436832       0.33543236
Si       5.02172821       1.21574125       7.47022506  T      -0.10068295       0.65235346       0.27865264
Si       6.56691534       3.45652980       9.03780726  T      -0.29448028       0.44662288       0.20971384
Si       7.95818855       0.99511133      10.49157984  T      -0.31656468      -1.00716305      -0.37774887
Si       3.54354372       8.23557589      10.42427307  T       0.67890583      -0.08847687       0.16149755
Si       2.99007106       6.90650380       8.04599962  T      -1.73472192      -0.09693698      -0.92790177
Si       0.93176336       6.45115628      10.99570835  T      -0.05611454      -0.12907819       0.80101792
Si       0.27203600       5.79630445       7.99676485  T       1.56506550      -0.01209592      -2.30365796
Si       5.90476731       7.05339944      11.55534265  T      -0.27982267      -0.32911116       1.61953099
Si       7.43052584       6.08200702       7.79516889  T       0.20100933       0.44711138      -1.06437291
Si       7.35375923       9.30011129       8.01211199  T       1.12273143      -0.52714013       1.64102851
Si       7.93000000       1.02000000       0.50000000  F       0.00000000       0.00000000       0.00000000
Si       0.91000000       6.44000000       0.98000000  F       0.00000000       0.00000000       0.00000000
Si       5.91000000       7.08000000       1.49000000  F       0.00000000       0.00000000       0.00000000
C        4.96071681       5.01584015      25.01635835  T       0.46742711       0.06392967     -13.18723364
F        5.80038758       6.05832469      25.01832566  T      -0.26441894       0.14646694     -20.81454981
F        5.80746388       3.93389154      25.01856772  T      -0.21713669      -0.15137297     -20.79588912
153
Lattice="10.0 0.0 0.0 0.0 10.0 0.0 0.0 0.0 43.74" Properties=species:S:1:pos:R:3:move_mask:L:1:momenta:R:3 etch=trj_CF2_30eV_case1 idx=0 index=0 source=trj_CF2_30eV_case1/0000/OUTCAR converged=T time_fs=17.0 pbc="T T T"
O        2.22815597       4.57902903      13.84775318  T      -0.70739335       1.29317759       0.42749563
O        1.48246469       2.46553028      12.47985875  T      -0.21286688       0.13286218      -1.57020243
O        3.87191754       2.66595888      14.22330257  T      -0.50570142      -1.01636637       0.69282137
O        3.81189740       4.58387667      16.09746378  T      -0.59455531      -0.22442592       0.39547311
O        1.65635735       2.88425024      15.85924868  T       0.74884234       0.11591320       0.59427768
O        5.06736128       1.66377120      16.08702945  T      -0.38711780       0.51761674      -0.47689318
O        5.17192942       0.86288069      13.25870521  T      -1.46831956       0.80476583       0.29340832
O        6.15663913       3.60665791      14.04714452  T      -0.05701508      -0.06062038       0.14997344
O        7.08127230       1.37507843      14.66977705  T       0.03299292       0.87521645       0.73508624
O        9.03868925       2.27907847      16.32101098  T      -0.43335072       0.15657468       1.14582595
O        9.55821364       0.42131538      14.75826578  T       0.76298220      -0.19849536       0.31668660
O        0.90412129       9.74924510      12.63762833  T       0.47434136      -0.18648296      -0.31767553
O        1.14991884       8.23706581      14.62502935  T      -0.97851113       0.11429970      -0.10948936
O        9.87925826       6.97733267      12.13299356  T       1.06829588      -0.39514190       1.27369031
O        5.20473662       6.17912410      14.57051903  T       1.01887410      -0.16045512       0.62526398
O        5.63801952       5.59582220      12.18567075  T       0.49285053      -0.57659320      -0.22539234
O        7.77701387       5.81483341      13.63855000  T      -0.29172197       0.35451403       0.06516084
O        5.59200220       8.28088527      12.63016056  T      -0.15523268       0.31446797      -0.40755955
O        8.59607539       8.38124345      13.63319728  T       0.67803611      -0.28593814      -0.12565067
O        2.42839615       5.19531444      21.47465882  T      -0.01332991      -0.55195411       0.50244987
O        0.19799481       6.17500231      22.77217275  T      -0.09395503      -0.29102389      -0.06274962
O        1.85649642       0.15357627      20.00351874  T       0.36478847       0.41652909       0.82261695
O        2.22233570       2.98548586      19.93909328  T       0.62485787      -0.44460258       0.43338986
O        3.45279095       1.27264417      18.20844980  T      -0.10060591       0.32358200       0.17763714
O        0.89428742       1.54012140      18.03096523  T      -0.61270251       0.90719131       0.32503630
O        0.40715113       4.10964695      17.76295381  T       0.08542704      -0.68460379       0.29534637
O        9.09360429       1.35877420      21.41875015  T       0.04425024       0.18442488       0.41574323
O        5.41735486       2.99754039      18.31141405  T       0.14894801       0.69805348      -0.99660642
O        4.64196579       3.94934071      20.62334481  T       0.51079156      -0.28825963       0.06547124
O        7.07933804       2.70420984      20.26258729  T      -0.36051131       0.40600588       0.86485690
O        6.42468050       0.45863020      21.43422537  T      -0.00737120       0.74360032       0.42142910
O        6.61763299       5.22346729      19.38897180  T      -0.16688093      -0.03693116      -0.05889288
O        7.93558021       9.80934680      16.69790743  T       0.14657568      -0.05737560       0.20582762
O        3.83582644       7.00858435      16.86732859  T      -0.22512157      -0.45431448      -0.19890870
O        3.75060089       9.41481742      21.42343740  T       0.80182236      -0.20500007      -0.22991913
O        3.20966254       7.97573579      19.11808478  T       0.31512164       0.38070929       0.26032049
O        1.24970132       6.63755207      17.73955901  T      -0.01764166       0.34762262      -0.44047912
O        3.20614223       5.26610293      18.88220578  T      -0.06046774       0.17794623      -0.28136761
O        0.33613040       5.55954798      20.07197903  T      -0.97471896       0.27498977       0.08999672
O        1.51691480       7.69348546      21.08506730  T      -0.07681701       0.81086867       0.79368824
O        4.80018945       8.47558622      21.95716138  T      -0.00770395      -0.30562623       0.68385832
O        8.01648420       0.20263728      19.36614932  T       0.16603504      -0.14401067      -0.20143804
O        6.92068150       8.83365131      23.74199335  T      -0.36775494      -0.19363345      -0.55671069
O        6.22225724       5.76869562      16.89729879  T      -0.09279287       0.48864362       0.13986471
O        5.75868244       0.27466552      18.19720707  T      -0.21071637      -0.62510020       0.29217301
O        8.68694164       6.00723603      17.91064590  T      -0.29944210       0.57702312       0.09230560
O        6.97489375       7.89798390      18.40747134  T      -0.14414408      -0.07043551      -0.26913109
O        2.17611407       4.60391875       3.81931355  T      -1.43562578       1.47147187       0.27020401
O        1.48853960       2.44427493       2.44149941  T       0.30552973       0.41740423      -2.21471739
O        3.89979026       2.69969541       4.18120461  T      -0.15781360      -0.32979579      -0.12889675
O        3.69202383       4.53249345       6.12383696  T       0.82564342       0.02442227       0.03734683
O        1.67074356       2.92363625       5.81262743  T      -0.49124473       0.10634087      -0.07954097
O        4.85681310       1.32493985       5.84059774  T       0.57484053      -0.06926878       0.20180870
O        5.22334282       0.84828497       3.21614358  T      -0.47612277       0.60211952      -0.46387604
O        6.16902336       3.61761231       4.04764438  T       0.17172869      -0.25842936       0.22048729
O        7.08453378       1.40353711       4.70939490  T      -0.11904950       1.45091857       1.19044825
O        9.08293202       2.40916659       6.32674021  T       1.18734636      -1.00069723       0.77614455
O        9.60505602       0.48350281       4.69096465  T       0.89377363       1.12401638      -0.45855701
O        0.92494697       9.77301201       2.57593876  T       0.81931260      -0.47490982      -0.87994446
O        1.12746608       8.24491158       4.59822847  T      -1.00046191      -0.11027423      -0.35942298
O        9.87000000       6.98000000       2.02000000  F       0.00000000       0.00000000       0.00000000
O        5.21148156       6.12222736       4.56970998  T       1.01107459      -0.91185218       0.66952060
O        5.59000000       5.63000000       2.17000000  F       0.00000000       0.00000000       0.00000000
O        7.77201765       5.81631263       3.61462459  T      -0.34386566       0.21922012      -0.18661758
O        5.60199517       8.24725005       2.58286297  T      -0.12565689       0.55617970      -1.42089913
O        8.58662448       8.37672017       3.59947959  T       0.84035860       0.04853522      -0.42170535
O        3.49007404       4.16635252      11.51107590  T      -0.55133509      -0.21588860      -0.16944020
O        1.13617355       4.86008263      11.36799836  T      -0.17880177      -0.18075495       0.26061315
O        1.72460696       0.89894647      10.37402494  T       0.14637882      -0.19788213      -0.27532131
O        2.77081478       3.13320180       9.31193368  T      -0.65048777       0.04620792      -0.36339774
O        3.55809157       1.00307878       8.20271783  T       0.66778102       0.42977959       0.49872950
O        1.02564023       1.62130767       7.95053015  T      -0.76782993      -0.43098114       0.31943679
O        0.43649351       4.16889992       7.87829968  T       0.09270350       0.31620247      -0.19318173
O        9.24618567       1.31491596      11.36208038  T       0.00751891       0.04518430      -0.92505582
O        5.96773869       2.56165395       7.80418708  T       0.53760250      -0.28150630       0.15531109
O        5.27242653       4.04839964       9.73917470  T      -0.25164556       0.42875934       0.72922728
O        7.38046096       2.45859299      10.03729571  T       0.68859236       0.08710818       0.05141592
O        6.74397033       0.17940209      11.32848519  T      -0.36662071       0.28399281      -0.41203229
O        7.49516422       4.82125650       8.91299566  T      -0.37626543      -0.29560904      -1.12890048
O        8.07602152       9.77893524       6.58668124  T      -0.49018503       0.58476064       0.34245981
O        4.10682519       7.04041316       6.81876902  T      -0.32169702       0.45700571       0.34096527
O        3.99693029       9.58335676      11.20312237  T       0.74044840      -0.06551282      -0.73043870
O        3.05646086       8.32273128       8.84638522  T      -0.12917359      -0.44888455      -0.22738288
O        1.53289634       6.59689290       7.45408217  T       0.08781070      -0.43040909      -0.85891032
O        3.33307647       5.61852572       9.05670358  T      -0.44660524       0.63440013       0.43818058
O        0.15315438       6.44515481       9.54631359  T      -0.65247033      -1.00537587      -0.29681299
O        2.25004077       7.37136257      11.12398146  T       0.46203947      -0.13179398       0.49008701
O        4.93746089       7.38386333      10.25376099  T      -0.26649492      -0.07991340       1.22621586
O        8.18923809       0.02513309       9.16234779  T       0.49803348      -0.04402154       0.07630503
O        7.51329689       7.20029064      11.31775318  T      -0.28388057      -0.21391065      -0.70723174
O        6.20425820       5.51072213       6.87356963  T       0.32064581       0.19589119      -0.20085857
O        5.81250556       9.87254218       8.00691122  T      -0.06303179      -0.22416146      -0.45709193
O        8.88384134       6.08608811       7.16083417  T       0.00491846       0.14790108       0.77249789
O        7.23198150       7.67738365       8.17850805  T      -0.65363179      -0.06375530       0.16254428
O        3.55000000       4.18000000       1.53000000  F       0.00000000       0.00000000       0.00000000
O        1.14000000       4.89000000       1.35000000  F       0.00000000       0.00000000       0.00000000
O        9.29000000       1.31000000       1.44000000  F       0.00000000       0.00000000       0.00000000
O        6.84000000       0.20000000       1.30000000  F       0.00000000       0.00000000       0.00000000
O        3.95000000       9.60000000       1.25000000  F       0.00000000       0.00000000       0.00000000
O        2.28000000       7.42000000       1.08000000  F       0.00000000       0.00000000       0.00000000
O        7.52000000       7.21000000       1.37000000  F       0.00000000       0.00000000       0.00000000
Si       2.12008302       3.95781117      12.32544883  T       0.18266194      -0.22737416       0.45350103
Si       2.90979460       3.63261199      15.05517181  T       0.26064457      -0.15848148      -0.84292230
Si       0.86309743       1.14937365      11.72076213  T      -0.90959959      -0.22662947      -1.01706511
Si       8.31059293       0.99888799      15.60850222  T       0.92203580       1.12209591       0.18880850
Si       5.48168840       2.03253840      14.43144789  T       1.94321108       1.14894739       0.27731597
Si       4.76179213       5.88698140      16.09829052  T      -0.31999122      -1.62334193       0.61538092
Si       0.01997119       9.14078649      13.88030562  T       0.20973679       0.09131439       0.32861795
Si       6.19213893       5.19371777      13.63440395  T      -0.17247142      -0.76480453      -1.31402148
Si       5.41595094       9.76379543      12.12209053  T      -0.74697854       0.69136592       1.75572576
Si       8.39553354       7.03415118      12.71234404  T      -0.05336731      -0.13948306      -0.67271145
Si       3.08261898       4.30787893      20.21412527  T       1.51845660      -0.15263667       0.07956377
Si       2.10433346       1.46462574      19.08101905  T      -0.44220489      -0.28010193      -1.03615019
Si       0.48282066       2.67670029      16.93081461  T      -0.19556894      -0.05746752      -1.71357919
Si       4.93314970       1.57447076      17.63714918  T       0.63888545      -0.57160710      -0.65639966
Si       5.95886224       3.75516123      19.68650969  T       0.05368495      -0.70958851       0.08904497
Si       7.67855613       1.22982435      20.58237189  T       0.89342239       0.99267185      -1.63515124
Si       2.57385082       8.74683280      20.35881886  T      -0.18578918       0.26195023      -0.00331405
Si       2.90907843       6.71148793      18.13761842  T       0.61969533       0.67075985       0.56238265
Si       1.08763829       6.14387852      21.34785373  T       0.33417311      -0.52029723      -1.47717040
Si       0.17012320       5.56219485      18.38714502  T      -1.01022080      -0.21758513       0.04314840
Si       6.13088944       9.22844903      22.46695240  T      -1.80126545      -0.76551119       0.32121069
Si       7.12127401       6.25495402      18.15044973  T      -0.50938671       0.36220101       0.15576638
Si       7.17349219       9.48639057      18.16797251  T       0.05385483      -0.75186947       0.45266239
Si       2.10000000       3.98000000       2.32000000  F       0.00000000       0.00000000       0.00000000
Si       2.93389823       3.64265025       5.04487050  T      -0.46067367      -0.38381819      -0.37584663
Si       0.89000000       1.15000000       1.77000000  F       0.00000000       0.00000000       0.00000000
Si       8.33787057       1.06449986       5.59995320  T       0.34347477       0.62048547       0.21298497
Si       5.47122716       1.98047517       4.43211971  T       1.69811525      -0.09355952      -0.24355336
Si       4.79903171       5.82693828       6.10971779  T       0.43917204       0.50384302       0.95888835
Si       0.04876749       9.11348883       3.93423303  T       0.87010296      -0.27549155       1.37851000
Si       6.19393053       5.18024082       3.66215544  T      -0.24472644      -0.95389317      -1.29234139
Si       5.42000000       9.77000000       2.06000000  F       0.00000000       0.00000000       0.00000000
Si       8.41557187       7.03597308       2.75600765  T       0.72117345      -0.25907173       0.11415157
Si       3.71238771       4.27439895       9.91904728  T      -0.04749466      -0.29868208       0.64034679
Si       2.30993399       1.60456953       8.96284134  T      -0.41076694       0.15867877      -0.54254661
Si       0.48749123       2.82519338       6.94385414  T      -1.29607085       0.05285543       0.42501512
Si       5.02145963       1.21797930       7.47111364  T      -0.05117809       0.62571154       0.22935377
Si       6.56600433       3.45807622       9.03866548  T      -0.22637652       0.43650910       0.28189838
Si       7.95666738       0.99150270      10.49018308  T      -0.55370469      -1.05410094      -0.42041930
Si       3.54569917       8.23518354      10.42481841  T       0.55141338      -0.13610848       0.14898819
Si       2.98421845       6.90608021       8.04279330  T      -1.60793064      -0.14482208      -0.90316652
Si       0.93134068       6.45052360      10.99857842  T      -0.18474804      -0.23305573       0.83709846
Si       0.27727266       5.79615305       7.98893964  T       1.42491403      -0.07533467      -2.16629507
Si       5.90373745       7.05241769      11.56092652  T      -0.30892630      -0.23120355       1.57078957
Si       7.43104281       6.08351880       7.79163497  T       0.09317911       0.41688572      -0.95418214
Si       7.35757360       9.29826862       8.01758074  T       1.05445057      -0.52566496       1.48258550
Si       7.93000000       1.02000000       0.50000000  F       0.00000000       0.00000000       0.00000000
Si       0.91000000       6.44000000       0.98000000  F       0.00000000       0.00000000       0.00000000
Si       5.91000000       7.08000000       1.49000000  F       0.00000000       0.00000000       0.00000000
C        4.96511909       5.01623371      24.90850197  T       0.60584584       0.03164685     -13.18969801
F        5.79886071       6.05894474      24.91071036  T      -0.32433541       0.09414073     -20.81388398
F        5.80611922       3.93333759      24.91105499  T      -0.30170399      -0.06309625     -20.79286832
153
Lattice="10.0 0.0 0.0 0.0 10.0 0.0 0.0 0.0 43.74" Properties=species:S:1:pos:R:3:move_mask:L:1:momenta:R:3 etch=trj_CF2_30eV_case1 idx=0 index=0 source=trj_CF2_30eV_case1/0000/OUTCAR converged=T time_fs=18.0 pbc="T T T"
O        2.22385687       4.58682250      13.85044590  T      -0.69207753       1.24310613       0.44869035
O        1.48101000       2.46612846      12.47007360  T      -0.26072646       0.06235708      -1.61575928
O        3.86885516       2.65958447      14.22756325  T      -0.49133733      -1.05890016       0.69386432
O        3.80794615       4.58211427      16.09979880  T      -0.69203939      -0.34988090       0.36473991
O        1.66136434       2.88506862      15.86261052  T       0.88118216       0.15014097       0.50006243
O        5.06503740       1.66704860      16.08344984  T      -0.36960022       0.54935686      -0.68622932
O        5.16282004       0.86792289      13.26059616  T      -1.49730186       0.83698620       0.32223949
O        6.15628120       3.60647369      14.04798508  T      -0.05959346       0.00091445       0.12332760
O        7.08146763       1.38057533      14.67431650  T       0.03228298       0.91444728       0.74334841
O        9.03599347       2.28023336      16.32817514  T      -0.44565298       0.21949705       1.18623240
O        9.56312783       0.41998562      14.76007072  T       0.83568575      -0.23230161       0.27291801
O        0.90698166       9.74832566      12.63554795  T       0.45617235      -0.11299357      -0.35899445
O        1.14410321       8.23751684      14.62457565  T      -0.91362485       0.03086634      -0.03690100
O        9.88625536       6.97471216      12.14067652  T       1.20756393      -0.45796387       1.22951870
O        5.21114003       6.17800306      14.57436692  T       1.06639318      -0.20567763       0.62751500
O        5.64087581       5.59222601      12.18393083  T       0.43648582      -0.59478948      -0.34220853
O        7.77506883       5.81700860      13.63888971  T      -0.34166621       0.35381986       0.04490271
O        5.59113411       8.28212168      12.62795038  T      -0.12718204       0.08834842      -0.31017672
O        8.60011512       8.37947179      13.63238939  T       0.63654595      -0.29096445      -0.13781305
O        2.42840128       5.19181158      21.47761432  T       0.01488568      -0.58864471       0.45885171
O        0.19757945       6.17316393      22.77150222  T      -0.04073626      -0.30780709      -0.15681577
O        1.85872599       0.15613757      20.00866610  T       0.36120592       0.41849918       0.85291113
O        2.22603836       2.98195754      19.94146992  T       0.58220480      -0.70235390       0.34095845
O        3.45202676       1.27463140      18.20959517  T      -0.14584769       0.32353504       0.19383697
O        0.89035523       1.54570153      18.03295445  T      -0.66803229       0.90936956       0.32247765
O        0.40763144       4.10519088      17.76471977  T       0.07023545      -0.76350773       0.28073691
O        9.09385448       1.35994587      21.42128060  T       0.03685405       0.19723689       0.40775319
O        5.41838842       3.00187025      18.30536862  T       0.18790228       0.71092352      -0.97190598
O        4.64502542       3.94757942      20.62386973  T       0.48532406      -0.28519704       0.10604101
O        7.07719823       2.70672953      20.26795840  T      -0.33578250       0.41437547       0.88410344
O        6.42484346       0.46314716      21.43690377  T       0.06074366       0.72615364       0.45132306
O        6.61668944       5.22342546      19.38850527  T      -0.14067287       0.02274543      -0.09289508
O        7.93630557       9.80894045      16.69956261  T       0.09007817      -0.07383172       0.33208581
O        3.83461436       7.00579244      16.86591595  T      -0.16967113      -0.45491016      -0.26080543
O        3.75556085       9.41347983      21.42193407  T       0.81293362      -0.23057273      -0.26000434
O        3.21171996       7.97806007      19.11956889  T       0.35502917       0.37593988       0.22267801
O        1.24998528       6.63967879      17.73707292  T       0.10909987       0.34369632      -0.36781070
O        3.20578046       5.26737346      18.88045397  T      -0.05705523       0.23466438      -0.28726664
O        0.32971968       5.56111986      20.07182492  T      -1.11298454       0.23705484      -0.14013378
O        1.51663502       7.69879120      21.08988574  T      -0.01510536       0.91415440       0.77585553
O        4.79953260       8.47338075      21.96121656  T      -0.20859574      -0.41412620       0.63587401
O        8.01765110       0.20183019      19.36500089  T       0.21417759      -0.11862122      -0.17261817
O        6.91823408       8.83244585      23.73831068  T      -0.42847440      -0.19969964      -0.64083608
O        6.22143463       5.77172308      16.89800805  T      -0.17505199       0.49684639       0.09137381
O        5.75733742       0.27078138      18.19901237  T      -0.22773915      -0.63919783       0.29537701
O        8.68523670       6.01079700      17.91125942  T      -0.25544522       0.58246479       0.10737472
O        6.97395224       7.89724097      18.40587130  T      -0.16275423      -0.17138319      -0.25145792
O        2.16733435       4.61269729       3.82113194  T      -1.42297195       1.38502580       0.32074151
O        1.49054634       2.44697354       2.42767201  T       0.34831131       0.46121069      -2.28828796
O        3.89880171       2.69766091       4.18033060  T      -0.16451149      -0.33231056      -0.15555252
O        3.69763460       4.53319525       6.12434399  T       0.99929225       0.20137738       0.12556135
O        1.66783719       2.92441238       5.81200914  T      -0.45547737       0.14657362      -0.12137542
O        4.86036972       1.32446388       5.84228194  T       0.58341504      -0.08493472       0.34456355
O        5.22047926       0.85208802       3.21330017  T      -0.45566364       0.63600054      -0.46227775
O        6.17010332       3.61596820       4.04895086  T       0.17992270      -0.27705152       0.20423837
O        7.08365158       1.41268441       4.71664100  T      -0.16626524       1.52744144       1.16945484
O        9.08962009       2.40271734       6.33129857  T       0.98617406      -1.10018288       0.70672353
O        9.61044801       0.49048571       4.68805663  T       0.86084628       1.15032184      -0.48832453
O        0.93001754       9.77000158       2.57051883  T       0.83209970      -0.50471093      -0.88537490
O        1.12181571       8.24367558       4.59639419  T      -0.83614082      -0.29552858      -0.23550348
O        9.87000000       6.98000000       2.02000000  F       0.00000000       0.00000000       0.00000000
O        5.21777510       6.11658903       4.57385154  T       1.03856735      -0.92390600       0.67831642
O        5.59000000       5.63000000       2.17000000  F       0.00000000       0.00000000       0.00000000
O        7.76976867       5.81754593       3.61349250  T      -0.38833298       0.18214504      -0.18226509
O        5.60121588       8.25041388       2.57419181  T      -0.12820972       0.47225145      -1.40109540
O        8.59183965       8.37725845       3.59698220  T       0.85691624       0.12682921      -0.39168526
O        3.48691510       4.16501184      11.51015055  T      -0.47670158      -0.22081775      -0.13067726
O        1.13501328       4.85910812      11.36961676  T      -0.19881352      -0.13683441       0.26674647
O        1.72571524       0.89776958      10.37189499  T       0.21421411      -0.18567421      -0.41789978
O        2.76665771       3.13326738       9.30958783  T      -0.70208036      -0.02242875      -0.39985329
O        3.56274141       1.00561041       8.20556043  T       0.84405738       0.39540759       0.42819494
O        1.02085451       1.61875379       7.95249863  T      -0.79052356      -0.40017310       0.32127399
O        0.43707244       4.17098429       7.87706340  T       0.09602489       0.36090180      -0.21021346
O        9.24662038       1.31517175      11.35652571  T       0.13322969       0.03776029      -0.88410399
O        5.97096450       2.55978752       7.80506224  T       0.51321334      -0.32519488       0.13062331
O        5.27075230       4.05108716       9.74380540  T      -0.29089878       0.44547525       0.77795519
O        7.38472020       2.45905727      10.03754150  T       0.69770836       0.06482874       0.02785626
O        6.74219199       0.18143165      11.32556708  T      -0.21535650       0.37586264      -0.53601924
O        7.49284360       4.81959470       8.90580154  T      -0.37936987      -0.24550748      -1.21366904
O        8.07287492       9.78248350       6.58906491  T      -0.53382320       0.57117636       0.43312509
O        4.10437162       7.04356180       6.82127560  T      -0.47569958       0.56657489       0.47336381
O        4.00152765       9.58310934      11.19862659  T       0.75687941      -0.01405029      -0.73310792
O        3.05561897       8.31995426       8.84510397  T      -0.14503456      -0.45502962      -0.18870395
O        1.53357031       6.59442069       7.44830762  T       0.13142141      -0.37389599      -1.02383988
O        3.33021681       5.62263145       9.05931031  T      -0.48457621       0.70074185       0.41168965
O        0.14923929       6.43877973       9.54427128  T      -0.62081971      -1.07053742      -0.36670198
O        2.25334631       7.37084879      11.12692519  T       0.61268770      -0.03661234       0.46860788
O        4.93616642       7.38305318      10.26163746  T      -0.15447463      -0.18500383       1.33837832
O        8.19258221       0.02505281       9.16331621  T       0.59171381       0.01711735       0.23890324
O        7.51148562       7.19892221      11.31349619  T      -0.30485423      -0.23189244      -0.67770400
O        6.20620938       5.51195883       6.87227082  T       0.31478561       0.20701491      -0.22210001
O        5.81213372       9.87125176       8.00404534  T      -0.05652076      -0.19636699      -0.47577271
O        8.88447220       6.08705190       7.16535061  T       0.20123964       0.16652007       0.69677579
O        7.22790866       7.67687562       8.17953783  T      -0.67250794      -0.10189263       0.17296167
O        3.55000000       4.18000000       1.53000000  F       0.00000000       0.00000000       0.00000000
O        1.14000000       4.89000000       1.35000000  F       0.00000000       0.00000000       0.00000000
O        9.29000000       1.31000000       1.44000000  F       0.00000000       0.00000000       0.00000000
O        6.84000000       0.20000000       1.30000000  F       0.00000000       0.00000000       0.00000000
O        3.95000000       9.60000000       1.25000000  F       0.00000000       0.00000000       0.00000000
O        2.28000000       7.42000000       1.08000000  F       0.00000000       0.00000000       0.00000000
O        7.52000000       7.21000000       1.37000000  F       0.00000000       0.00000000       0.00000000
Si       2.12056296       3.95715882      12.32716653  T       0.08997217      -0.14461936       0.52907287
Si       2.91060468       3.63218117      15.05224790  T       0.20185257      -0.08689281      -0.82817667
Si       0.85985519       1.14849344      11.71724956  T      -0.94276645      -0.27734352      -0.99232243
Si       8.31377455       1.00271862      15.60924227  T       0.89651588       1.06548189       0.23439482
Si       5.48849785       2.03657007      14.43249619  T       1.94768987       1.15531080       0.32196533
Si       4.76082084       5.88132107      16.10048229  T      -0.23501229      -1.61174172       0.63688788
Si       0.02060801       9.14132898      13.88140001  T       0.15455866       0.21970148       0.29419047
Si       6.19165532       5.19092468      13.63010701  T      -0.10331269      -0.83123433      -1.13961097
Si       5.41313162       9.76659520      12.12823933  T      -0.86359282       0.91062490       1.75702302
Si       8.39531206       7.03366668      12.70997635  T      -0.07177171      -0.13757138      -0.68172854
Si       3.08806201       4.30746916      20.21455112  T       1.59123457      -0.08314565       0.16301541
Si       2.10294078       1.46398627      19.07747804  T      -0.35420178      -0.08533205      -0.98647146
Si       0.48207016       2.67667608      16.92497569  T      -0.23177341       0.04429665      -1.62219023
Si       4.93546082       1.57250048      17.63511565  T       0.68129815      -0.55427221      -0.50656346
Si       5.95901237       3.75259931      19.68658225  T       0.03284792      -0.75356207      -0.04942379
Si       7.68156484       1.23318820      20.57681520  T       0.82598492       0.92918708      -1.53882824
Si       2.57312015       8.74772516      20.35910121  T      -0.23121861       0.24912408       0.16569314
Si       2.91087339       6.71371605      18.13961557  T       0.40566872       0.60332786       0.57802773
Si       1.08888493       6.14208355      21.34297226  T       0.37881720      -0.50396404      -1.31164019
Si       0.16662871       5.56150357      18.38734469  T      -0.98580475      -0.17812113       0.06855958
Si       6.12491168       9.22608071      22.46815611  T      -1.61382567      -0.58442499       0.36462434
Si       7.11937993       6.25620252      18.15114125  T      -0.57375705       0.35066557       0.23978863
Si       7.17374065       9.48390086      18.16921230  T       0.08823376      -0.67074552       0.25527316
Si       2.10000000       3.98000000       2.32000000  F       0.00000000       0.00000000       0.00000000
Si       2.93194647       3.64128025       5.04334880  T      -0.65389072      -0.39664909      -0.49190579
Si       0.89000000       1.15000000       1.77000000  F       0.00000000       0.00000000       0.00000000
Si       8.33942804       1.06662625       5.60078290  T       0.54770371       0.59353739       0.26140146
Si       5.47717446       1.98021275       4.43119422  T       1.69956925      -0.05592720      -0.28421988
Si       4.80057910       5.82832452       6.11296211  T       0.44440044       0.29009220       0.89623983
Si       0.05160649       9.11292494       3.93891120  T       0.75084969      -0.04356276       1.29369743
Si       6.19313938       5.17683547       3.65764366  T      -0.20711911      -0.99273809      -1.28519805
Si       5.42000000       9.77000000       2.06000000  F       0.00000000       0.00000000       0.00000000
Si       8.41811050       7.03502440       2.75631243  T       0.72939503      -0.28275360       0.06029234
Si       3.71218110       4.27340910       9.92117781  T      -0.07387863      -0.26629826       0.57477101
Si       2.30816288       1.60529431       8.96115343  T      -0.60099485       0.25438222      -0.42297211
Si       0.48330309       2.82529279       6.94551118  T      -1.09277636       0.00471919       0.52415862
Si       5.02138030       1.22010825       7.47182948  T       0.00754849       0.59007205       0.18014055
Si       6.56533102       3.45957627       9.03978337  T      -0.15901753       0.42008229       0.35795624
Si       7.95431705       0.98775246      10.48864371  T      -0.78933638      -1.08772990      -0.45879870
Si       3.54738978       8.23462267      10.42530733  T       0.41381917      -0.18478989       0.12925896
Si       2.97884552       6.90549416       8.03969600  T      -1.46113199      -0.18961749      -0.86562876
Si       0.93047892       6.44952588      11.00154478  T      -0.30619634      -0.33721297       0.85576675
Si       0.28197979       5.79577427       7.98163773  T       1.26334883      -0.14149961      -2.00509361
Si       5.90260776       7.05178652      11.56631531  T      -0.33676318      -0.12932923       1.50835470
Si       7.43117213       6.08492078       7.78850553  T      -0.01965221       0.38450578      -0.83382260
Si       7.36111281       9.29644018       8.02246467  T       0.96581952      -0.51878480       1.30772057
Si       7.93000000       1.02000000       0.50000000  F       0.00000000       0.00000000       0.00000000
Si       0.91000000       6.44000000       0.98000000  F       0.00000000       0.00000000       0.00000000
Si       5.91000000       7.08000000       1.49000000  F       0.00000000       0.00000000       0.00000000
C        4.97057377       5.01634929      24.80062546  T       0.72381512      -0.00392272     -13.19220612
F        5.79705200       6.05930630      24.80309893  T      -0.37298467       0.04683157     -20.81308432
F        5.80435785       3.93323535      24.80355852  T      -0.37776237       0.02285240     -20.78957184
153
Lattice="10.0 0.0 0.0 0.0 10.0 0.0 0.0 0.0 43.74" Properties=species:S:1:pos:R:3:move_mask:L:1:momenta:R:3 etch=trj_CF2_30eV_case1 idx=0 index=0 source=trj_CF2_30eV_case1/0000/OUTCAR converged=T time_fs=19.0 pbc="T T T"
O        2.21966735       4.59426893      13.85325210  T      -0.67181401       1.18033650       0.46436426
O        1.47926738       2.46630229      12.46003540  T      -0.30640752      -0.00485879      -1.65257381
O        3.86588889       2.65297039      14.23180982  T      -0.47460868      -1.09418936       0.68823988
O        3.80340837       4.57958236      16.10193917  T      -0.78503203      -0.47432880       0.33228457
O        1.66716215       2.88608679      15.86538462  T       1.00551876       0.18069400       0.40355653
O        5.06282528       1.67050914      16.07864256  T      -0.35084461       0.57709544      -0.87506733
O        5.15356279       0.87315009      13.26265819  T      -1.51641227       0.86500598       0.34907522
O        6.15590725       3.60667019      14.04865432  T      -0.06223454       0.06299121       0.09430723
O        7.08168700       1.38629635      14.67890179  T       0.04108870       0.94810116       0.75007281
O        9.03320740       2.28177059      16.33555842  T      -0.46295432       0.28080042       1.21702075
O        9.56845081       0.41848954      14.76163629  T       0.89573117      -0.25225745       0.23918842
O        0.90970992       9.74785624      12.63323183  T       0.43135528      -0.04022214      -0.39425375
O        1.13872200       8.23742845      14.62458907  T      -0.83745491      -0.06108195       0.04236086
O        9.89404608       6.97171614      12.14809812  T       1.32601093      -0.51721051       1.18904333
O        5.21782341       6.17658902      14.57821771  T       1.10995351      -0.25586767       0.62629897
O        5.64336985       5.58851897      12.18146454  T       0.37525959      -0.61284080      -0.46119317
O        7.77282204       5.81917583      13.63909540  T      -0.38976610       0.35199078       0.02153662
O        5.59044309       8.28198143      12.62637298  T      -0.09778889      -0.13187348      -0.20178375
O        8.60387870       8.37767326      13.63150219  T       0.58832375      -0.29463055      -0.15146983
O        2.42857700       5.18809175      21.48027854  T       0.04209449      -0.62254501       0.40765519
O        0.19749995       6.17122299      22.77023695  T       0.01527041      -0.32444050      -0.25622170
O        1.86092893       0.15872278      20.01397810  T       0.35617127       0.42447385       0.87609555
O        2.22949703       2.97689335      19.94328371  T       0.54596726      -0.94357890       0.25047628
O        3.45102802       1.27661464      18.21081182  T      -0.17654921       0.32230715       0.20060378
O        0.88608792       1.55127528      18.03492053  T      -0.72160601       0.90509079       0.31760370
O        0.40800535       4.10031005      17.76641008  T       0.05077410      -0.82247437       0.27083458
O        9.09405259       1.36119598      21.42374903  T       0.02725495       0.20998815       0.39560924
O        5.41966330       3.00625407      18.29948717  T       0.22746352       0.71554357      -0.94340825
O        4.64792073       3.94584139      20.62465145  T       0.45756116      -0.28075090       0.14897760
O        7.07522219       2.70929364      20.27343585  T      -0.30727086       0.42046716       0.89945454
O        6.42542837       0.46753031      21.43976912  T       0.12990127       0.70014986       0.48219382
O        6.61590243       5.22373875      19.38783478  T      -0.11613093       0.07834449      -0.12499900
O        7.93669141       9.80845303      16.70196920  T       0.03624663      -0.08361794       0.45004099
O        3.83374140       7.00300060      16.86413318  T      -0.11505967      -0.45438508      -0.31903077
O        3.76057280       9.41198819      21.42024285  T       0.81871499      -0.25509436      -0.29109258
O        3.21402024       7.98034757      19.12081601  T       0.39402084       0.36886396       0.18344276
O        1.25102796       6.64175713      17.73505754  T       0.22907721       0.33184394      -0.28736851
O        3.20544506       5.26896926      18.87870048  T      -0.05185779       0.28350502      -0.28167073
O        0.32247484       5.56246140      20.07026762  T      -1.24555267       0.20046786      -0.36541666
O        1.51671951       7.70467264      21.09459440  T       0.04151129       0.99774933       0.75815659
O        4.79761082       8.47049112      21.96495852  T      -0.41844202      -0.52781571       0.58225923
O        8.01911373       0.20118276      19.36402900  T       0.26212149      -0.09216360      -0.14417012
O        6.91543274       8.83119198      23.73414886  T      -0.48266918      -0.20951201      -0.71224592
O        6.22011148       5.77478901      16.89842484  T      -0.25536548       0.50116704       0.04499969
O        5.75588299       0.26682694      18.20082845  T      -0.24632681      -0.64797332       0.29567119
O        8.68380840       6.01438320      17.91196206  T      -0.20967593       0.58530617       0.12124134
O        6.97289342       7.89588558      18.40438983  T      -0.18232971      -0.26914244      -0.23056730
O        2.15865534       4.62089442       3.82323678  T      -1.40295065       1.28229778       0.36337384
O        1.49281708       2.44993162       2.41341481  T       0.39135794       0.50158289      -2.35476855
O        3.89776657       2.69562191       4.17929816  T      -0.17310329      -0.33118759      -0.18033406
O        3.70426045       4.53493127       6.12535161  T       1.15534600       0.36017799       0.19968529
O        1.66514967       2.92543612       5.81114334  T      -0.42023687       0.18684437      -0.15993583
O        4.86397383       1.32390647       5.84480067  T       0.59036669      -0.09563768       0.47274312
O        5.21775803       0.85608618       3.21046774  T      -0.42980562       0.66555005      -0.46039757
O        6.17123094       3.61421173       4.05014323  T       0.18722700      -0.29495499       0.18328665
O        7.08251754       1.42227628       4.72375147  T      -0.20028631       1.59537358       1.14671797
O        9.09499576       2.39566040       6.33540072  T       0.76130324      -1.19801646       0.62824748
O        9.61560898       0.49762334       4.68497264  T       0.81881592       1.17431001      -0.51591538
O        0.93516080       9.76682537       2.56507025  T       0.84299169      -0.52890539      -0.88915883
O        1.11723378       8.24125577       4.59535913  T      -0.65375102      -0.49478283      -0.09993401
O        9.87000000       6.98000000       2.02000000  F       0.00000000       0.00000000       0.00000000
O        5.22422920       6.11089243       4.57802536  T       1.06341063      -0.93083137       0.67995163
O        5.59000000       5.63000000       2.17000000  F       0.00000000       0.00000000       0.00000000
O        7.76725499       5.81854651       3.61238493  T      -0.42981252       0.14366065      -0.17874822
O        5.60042049       8.25302824       2.56568620  T      -0.13096062       0.37757981      -1.36697807
O        8.59713016       8.37827568       3.59467051  T       0.86487757       0.20417049      -0.36141212
O        3.48422852       4.16364111      11.50948442  T      -0.39792188      -0.22572076      -0.08507905
O        1.13373630       4.85839963      11.37127562  T      -0.21673910      -0.09436189       0.27383499
O        1.72723088       0.89666418      10.36890362  T       0.27869682      -0.17470427      -0.55521075
O        2.76221152       3.13295396       9.30703407  T      -0.74447512      -0.07672334      -0.43098358
O        3.56841882       1.00794154       8.20798927  T       1.00106775       0.36492781       0.36471032
O        1.01593955       1.61640130       7.95446944  T      -0.80995230      -0.36550996       0.32015636
O        0.43767412       4.17330942       7.87571135  T       0.10013469       0.39411873      -0.23093264
O        9.24780740       1.31537537      11.35122469  T       0.25154259       0.02811976      -0.84296306
O        5.97404177       2.55767586       7.80580123  T       0.48947753      -0.36106598       0.11124974
O        5.26888557       4.05385641       9.74871297  T      -0.31401796       0.45528260       0.81921483
O        7.38901619       2.45939714      10.03762984  T       0.70056587       0.04676332       0.00017609
O        6.74129254       0.18400158      11.32193378  T      -0.08146078       0.45952331      -0.64416445
O        7.49050903       4.81824265       8.89810400  T      -0.38083279      -0.19500340      -1.29263279
O        8.06947820       9.78595039       6.59198794  T      -0.57144061       0.55841709       0.51770179
O        4.10100919       7.04734358       6.82455368  T      -0.61659993       0.66230371       0.59128373
O        4.00622139       9.58319381      11.19413006  T       0.77188489       0.04238987      -0.73076782
O        3.05468058       8.31715147       8.84408098  T      -0.16057647      -0.45723354      -0.14331778
O        1.53450420       6.59230999       7.44149614  T       0.17196310      -0.31311549      -1.19613668
O        3.32713057       5.62710446       9.06176744  T      -0.52032144       0.75367825       0.38969874
O        0.14555217       6.43201839       9.54183086  T      -0.57827211      -1.13108594      -0.42615557
O        2.25753788       7.37089897      11.12973383  T       0.74972311       0.05127682       0.44622630
O        4.93556706       7.38158410      10.27018003  T      -0.04091238      -0.29401561       1.44267195
O        8.19650492       0.02533163       9.16527207  T       0.68596529       0.07219067       0.39668506
O        7.50956812       7.19744314      11.30944956  T      -0.31824314      -0.24990366      -0.63880189
O        6.20812217       5.51326457       6.87084413  T       0.30823491       0.21838513      -0.24245765
O        5.81182834       9.87012820       8.00107688  T      -0.04126680      -0.17000938      -0.49042141
O        8.88631086       6.08813795       7.16937168  T       0.39675320       0.18780549       0.61151677
O        7.22373006       7.67613193       8.18063239  T      -0.68805807      -0.14032024       0.18364751
O        3.55000000       4.18000000       1.53000000  F       0.00000000       0.00000000       0.00000000
O        1.14000000       4.89000000       1.35000000  F       0.00000000       0.00000000       0.00000000
O        9.29000000       1.31000000       1.44000000  F       0.00000000       0.00000000       0.00000000
O        6.84000000       0.20000000       1.30000000  F       0.00000000       0.00000000       0.00000000
O        3.95000000       9.60000000       1.25000000  F       0.00000000       0.00000000       0.00000000
O        2.28000000       7.42000000       1.08000000  F       0.00000000       0.00000000       0.00000000
O        7.52000000       7.21000000       1.37000000  F       0.00000000       0.00000000       0.00000000
Si       2.12070271       3.95680447      12.32915071  T      -0.01154426      -0.05737659       0.60557976
Si       2.91120331       3.63200890      15.04938327  T       0.14008986      -0.01098900      -0.80928309
Si       0.85651341       1.14743010      11.71381485  T      -0.96623517      -0.33128963      -0.97305820
Si       8.31686002       1.00632461      15.61014163  T       0.86731617       0.99387168       0.27983043
Si       5.49529474       2.04061323      14.43369856  T       1.93597655       1.15568905       0.36526818
Si       4.76014890       5.87571607      16.10273886  T      -0.14942034      -1.59212943       0.65229345
Si       0.02105450       9.14232594      13.88234579  T       0.10137540       0.35049816       0.24360961
Si       6.19141954       5.18791162      13.62644951  T      -0.03116024      -0.89005359      -0.94957127
Si       5.40992147       9.77016622      12.13436144  T      -0.96986403       1.13077804       1.74056546
Si       8.39504106       7.03318861      12.70757198  T      -0.08145116      -0.13589885      -0.69382377
Si       3.09373132       4.30728667      20.21525850  T       1.64728242      -0.02337696       0.24002078
Si       2.10185392       1.46402836      19.07413184  T      -0.26792895       0.10899991      -0.92479389
Si       0.48121183       2.67701347      16.91948417  T      -0.25663076       0.14910882      -1.51548954
Si       4.93790663       1.57059829      17.63360117  T       0.71572604      -0.53268251      -0.36091707
Si       5.95909642       3.74990174      19.68615430  T       0.01603456      -0.78688467      -0.19673059
Si       7.68432845       1.23631462      20.57162769  T       0.75358371       0.85713071      -1.42432812
Si       2.57223920       8.74858055      20.35998093  T      -0.27138851       0.24098155       0.33748990
Si       2.91191238       6.71570941      18.14165107  T       0.18825470       0.53700211       0.58395141
Si       1.09028720       6.14036533      21.33869016  T       0.42262016      -0.47665479      -1.13574884
Si       0.16324044       5.56094573      18.38760927  T      -0.94958640      -0.14153910       0.07996391
Si       6.11961501       9.22438392      22.46948642  T      -1.41338570      -0.38237755       0.39292289
Si       7.11726114       6.25740033      18.15212649  T      -0.63761822       0.33310519       0.32329130
Si       7.17410931       9.48170353      18.16975462  T       0.12253826      -0.58523033       0.05466892
Si       2.10000000       3.98000000       2.32000000  F       0.00000000       0.00000000       0.00000000
Si       2.92933628       3.63989437       5.04144558  T      -0.83615960      -0.39243846      -0.59342180
Si       0.89000000       1.15000000       1.77000000  F       0.00000000       0.00000000       0.00000000
Si       8.34170140       1.06864064       5.60178042  T       0.75160932       0.55652964       0.30865775
Si       5.48309651       1.98008696       4.43014109  T       1.68355680      -0.01554547      -0.31622531
Si       4.80213149       5.82897893       6.11598834  T       0.44161364       0.08679580       0.83481597
Si       0.05400863       9.11320068       3.94326700  T       0.62155783       0.20346843       1.19481918
Si       6.19248453       5.17330068       3.65317993  T      -0.16695711      -1.02789177      -1.26487506
Si       5.42000000       9.77000000       2.06000000  F       0.00000000       0.00000000       0.00000000
Si       8.42066711       7.03399944       2.75643120  T       0.73134367      -0.30258273       0.00807625
Si       3.71185160       4.27254214       9.92304976  T      -0.11791491      -0.22849057       0.49272646
Si       2.30574006       1.60633858       8.95987854  T      -0.78209519       0.34064079      -0.30714628
Si       0.47987933       2.82523097       6.94752866  T      -0.86024394      -0.03926271       0.63061981
Si       5.02152255       1.22209774       7.47237537  T       0.07553068       0.54611304       0.13242811
Si       6.56488865       3.46100767       9.04117209  T      -0.09471717       0.39724816       0.43649785
Si       7.95115561       0.98391102      10.48698130  T      -1.01617980      -1.10583976      -0.49033094
Si       3.54858727       8.23389014      10.42571499  T       0.27024573      -0.23420436       0.10260674
Si       2.97401528       6.90475833       8.03675171  T      -1.29842186      -0.23031416      -0.81577726
Si       0.92921228       6.44816800      11.00454383  T      -0.41537900      -0.43846082       0.85556033
Si       0.28609316       5.79516393       7.97493606  T       1.08662684      -0.20704922      -1.82377719
Si       5.90138413       7.05151322      11.57146481  T      -0.36246026      -0.02729398       1.43439735
Si       7.43090604       6.08620710       7.78580908  T      -0.13183366       0.35092052      -0.70734984
Si       7.36431017       9.29464693       8.02671694  T       0.85952927      -0.50531799       1.12254226
Si       7.93000000       1.02000000       0.50000000  F       0.00000000       0.00000000       0.00000000
Si       0.91000000       6.44000000       0.98000000  F       0.00000000       0.00000000       0.00000000
Si       5.91000000       7.08000000       1.49000000  F       0.00000000       0.00000000       0.00000000
C        4.97689334       5.01616351      24.69272675  T       0.81654214      -0.04185962     -13.19520229
F        5.79502572       6.05943984      24.69549183  T      -0.40812187       0.00621901     -20.81215851
F        5.80223143       3.93356569      24.69608000  T      -0.44239543       0.10373710     -20.78595624
153
Lattice="10.0 0.0 0.0 0.0 10.0 0.0 0.0 0.0 43.74" Properties=species:S:1:pos:R:3:move_mask:L:1:momenta:R:3 etch=trj_CF2_30eV_case1 idx=0 index=0 source=trj_CF2_30eV_case1/0000/OUTCAR converged=T time_fs=20.0 pbc="T T T"
O        2.21561581       4.60129393      13.85613647  T      -0.64725802       1.10606140       0.47408968
O        1.47725422       2.46608022      12.44979878  T      -0.34863240      -0.06613671      -1.68034590
O        3.86302965       2.64616527      14.23600172  T      -0.45669724      -1.12088192       0.67609834
O        3.79832126       4.57629974      16.10387792  T      -0.87040810      -0.59366665       0.29928600
O        1.67368636       2.88727733      15.86756895  T       1.11689806       0.20600734       0.30866170
O        5.06073046       1.67412537      16.07276089  T      -0.33149180       0.59990559      -1.03472883
O        5.14421945       0.87853618      13.26487812  T      -1.52528513       0.88873842       0.37363216
O        6.15551686       3.60724380      14.04914005  T      -0.06495346       0.12330940       0.06370768
O        7.08199275       1.39220531      14.68352421  T       0.06060841       0.97556652       0.75547123
O        9.03029756       2.28367509      16.34309896  T      -0.48609394       0.33884861       1.23732054
O        9.57409864       0.41691849      14.76303142  T       0.94121120      -0.25641204       0.21777177
O        0.91226617       9.74782716      12.63072046  T       0.40020933       0.03015592      -0.42243316
O        1.13383657       8.23675431      14.62510514  T      -0.75266014      -0.15953007       0.12647963
O        9.90249029       6.96837066      12.15528863  T       1.41982849      -0.57156590       1.15463314
O        5.22476047       6.17485216      14.58205169  T       1.14890841      -0.31078156       0.62214208
O        5.64547868       5.58469977      12.17827226  T       0.31143289      -0.63145582      -0.57783865
O        7.77028893       5.82132927      13.63914854  T      -0.43469352       0.34939372      -0.00475644
O        5.58993343       8.28053506      12.62549028  T      -0.06835390      -0.33510709      -0.08419440
O        8.60732892       8.37585733      13.63052680  T       0.53473276      -0.29654636      -0.16651148
O        2.42891474       5.18417347      21.48260633  T       0.06752261      -0.65321271       0.34934993
O        0.19777053       6.16918028      22.76834847  T       0.07314185      -0.34096894      -0.35957339
O        1.86309729       0.16135873      20.01940874  T       0.35000347       0.43512058       0.89144105
O        2.23276015       2.97041570      19.94455354  T       0.51896996      -1.16166131       0.16414570
O        3.44989081       1.27858704      18.21203802  T      -0.19064463       0.32002963       0.19676143
O        0.88150067       1.55680267      18.03685107  T      -0.77198039       0.89425096       0.31102349
O        0.40824692       4.09513420      17.76805546  T       0.02716012      -0.85927563       0.26617216
O        9.09418470       1.36252438      21.42613115  T       0.01534178       0.22275854       0.37971911
O        5.42118169       3.01063996      18.29378948  T       0.26713618       0.71153871      -0.91225167
O        4.65064264       3.94413394      20.62570199  T       0.42915524      -0.27531494       0.19344383
O        7.07343130       2.71188804      20.27899493  T      -0.27559255       0.42424468       0.91064643
O        6.42643877       0.47172959      21.44282511  T       0.19918234       0.66644649       0.51328421
O        6.61525801       5.22437560      19.38697708  T      -0.09440923       0.12777414      -0.15365948
O        7.93675840       9.80792793      16.70506731  T      -0.01354912      -0.08598967       0.55684668
O        3.83319581       7.00021418      16.86201002  T      -0.06341491      -0.45323592      -0.37128032
O        3.76560317       9.41035055      21.41835801  T       0.81887436      -0.27801694      -0.32307413
O        3.21655421       7.98258642      19.12182169  T       0.43093317       0.36023129       0.14435149
O        1.25278101       6.64373833      17.73355675  T       0.34013191       0.31206834      -0.20043210
O        3.20514734       5.27083576      18.87701947  T      -0.04476026       0.32251846      -0.26349433
O        0.31444523       5.56358914      20.06736414  T      -1.36778020       0.16788820      -0.57705641
O        1.51713190       7.71099901      21.09919774  T       0.09144186       1.05860827       0.74174659
O        4.79439171       8.46689658      21.96836066  T      -0.62972041      -0.64312200       0.52580019
O        8.02086679       0.20069893      19.36322742  T       0.30853504      -0.06548073      -0.11737805
O        6.91232351       8.82986505      23.72959467  T      -0.52843518      -0.22358209      -0.76816920
O        6.21830753       5.77786943      16.89856880  T      -0.33121422       0.50155455       0.00289119
O        5.75431018       0.26283520      18.20263731  T      -0.26623861      -0.65135001       0.29302136
O        8.68266175       6.01797977      17.91274486  T      -0.16406928       0.58591445       0.13339110
O        6.97171185       7.89395044      18.40304564  T      -0.20270545      -0.35944966      -0.20680670
O        2.15012015       4.62841397       3.82557758  T      -1.37624968       1.16455111       0.39753193
O        1.49535062       2.45312238       2.39877066  T       0.43374923       0.53665699      -2.41438822
O        3.89667141       2.69360197       4.17812160  T      -0.18416428      -0.32602485      -0.20233176
O        3.71177833       4.53757237       6.12676251  T       1.28906411       0.49528060       0.25643164
O        1.66267318       2.92670513       5.81005387  T      -0.38700327       0.22631364      -0.19401887
O        4.86761627       1.32330045       5.84805008  T       0.59593881      -0.10066201       0.58180689
O        5.21521150       0.86025092       3.20764653  T      -0.39880161       0.69016502      -0.45869423
O        6.17240031       3.61234854       4.05119221  T       0.19349148      -0.31174616       0.15751475
O        7.08122534       1.43225413       4.73072278  T      -0.21708832       1.65284061       1.12452500
O        9.09893946       2.38801711       6.33900366  T       0.52149632      -1.29041389       0.54498292
O        9.62048814       0.50489944       4.68172532  T       0.76937791       1.19528178      -0.54158767
O        0.94036499       9.76351768       2.55960540  T       0.85192450      -0.54758522      -0.89050023
O        1.11380784       8.23758593       4.59517984  T      -0.46117113      -0.70136848       0.04225108
O        9.87000000       6.98000000       2.02000000  F       0.00000000       0.00000000       0.00000000
O        5.23082801       6.10516905       4.58218642  T       1.08572210      -0.93263499       0.67412122
O        5.59000000       5.63000000       2.17000000  F       0.00000000       0.00000000       0.00000000
O        7.76449954       5.81930982       3.61129489  T      -0.46680993       0.10510415      -0.17665604
O        5.59960680       8.25503406       2.55743377  T      -0.13423434       0.27449157      -1.31864999
O        8.60244308       8.37975991       3.59254293  T       0.86423872       0.27861203      -0.33188030
O        3.48203214       4.16223979      11.50911792  T      -0.31747930      -0.23082437      -0.03320565
O        1.13235668       4.85794402      11.37298139  T      -0.23218330      -0.05470616       0.28205085
O        1.72912722       0.89562081      10.36509470  T       0.33788479      -0.16558637      -0.68356126
O        2.75753547       3.13235761       9.30430710  T      -0.77684131      -0.11420354      -0.45619773
O        3.57498281       1.01010322       8.21005952  T       1.13163493       0.34057966       0.31201583
O        1.01091507       1.61427162       7.95642393  T      -0.82621531      -0.32773308       0.31594550
O        0.43830370       4.17579682       7.87422048  T       0.10512355       0.41333510      -0.25543027
O        9.24968455       1.31551216      11.34617001  T       0.35708152       0.01593748      -0.80433169
O        5.97697863       2.55537198       7.80644126  T       0.46770051      -0.38755332       0.09862480
O        5.26692997       4.05666363       9.75384847  T      -0.31970200       0.45780163       0.85205810
O        7.39331070       2.45964125      10.03753644  T       0.69725656       0.03377300      -0.03126239
O        6.74114754       0.18705372      11.31769571  T       0.02944640       0.53252595      -0.73231692
O        7.48817030       4.81719794       8.88994289  T      -0.38073443      -0.14569233      -1.36442768
O        8.06587184       9.78934345       6.59540569  T      -0.60191394       0.54725034       0.59387219
O        4.09683667       7.05165899       6.82849877  T      -0.73858227       0.73967420       0.68980709
O        4.01100332       9.58363702      11.18966197  T       0.78562894       0.10255772      -0.72396051
O        3.05364815       8.31434781       8.84335619  T      -0.17564537      -0.45528436      -0.09166464
O        1.53567073       6.59057909       7.43361199  T       0.20671040      -0.25067344      -1.37264323
O        3.32383280       5.63185697       9.06410637  T      -0.55341897       0.79152656       0.37337438
O        0.14215867       6.42490094       9.53906165  T      -0.52527474      -1.18644141      -0.47353802
O        2.26251710       7.37145828      11.13240425  T       0.86846530       0.12869124       0.42373268
O        4.93565797       7.37944123      10.27933161  T       0.06947131      -0.40390662       1.53621234
O        8.20100078       0.02591985       9.16816494  T       0.77787868       0.11716507       0.54290297
O        7.50759467       7.19585406      11.30566912  T      -0.32288484      -0.26767852      -0.59111802
O        6.20999386       5.51464092       6.86929595  T       0.30147963       0.23002235      -0.26162223
O        5.81164460       9.86915947       7.99803194  T      -0.01685303      -0.14610447      -0.50061646
O        8.88932585       6.08936387       7.17284521  T       0.58282627       0.21215306       0.51880117
O        7.21946650       7.67515419       8.18179336  T      -0.70016669      -0.17792327       0.19459502
O        3.55000000       4.18000000       1.53000000  F       0.00000000       0.00000000       0.00000000
O        1.14000000       4.89000000       1.35000000  F       0.00000000       0.00000000       0.00000000
O        9.29000000       1.31000000       1.44000000  F       0.00000000       0.00000000       0.00000000
O        6.84000000       0.20000000       1.30000000  F       0.00000000       0.00000000       0.00000000
O        3.95000000       9.60000000       1.25000000  F       0.00000000       0.00000000       0.00000000
O        2.28000000       7.42000000       1.08000000  F       0.00000000       0.00000000       0.00000000
O        7.52000000       7.21000000       1.37000000  F       0.00000000       0.00000000       0.00000000
Si       2.12047460       3.95675993      12.33140168  T      -0.12001528       0.03212104       0.68129355
Si       2.91158352       3.63210693      15.04658993  T       0.07733355       0.06731340      -0.78769326
Si       0.85310859       1.14617295      11.71043431  T      -0.97855805      -0.38809276      -0.96176816
Si       8.31983893       1.00965589      15.61119915  T       0.83584724       0.90870102       0.32479386
Si       5.50202203       2.04464857      14.43504882  T       1.90787762       1.15102770       0.40636715
Si       4.75977274       5.87019038      16.10503767  T      -0.06648205      -1.56682166       0.66092470
Si       0.02132211       9.14377915      13.88308660  T       0.05275170       0.47986158       0.17708582
Si       6.19143821       5.18471022      13.62347454  T       0.04177454      -0.93840444      -0.75061107
Si       5.40636193       9.77449640      12.14039588  T      -1.06292335       1.34311276       1.70704589
Si       8.39475294       7.03271526      12.70511911  T      -0.08142969      -0.13497055      -0.70952518
Si       3.09956342       4.30729127      20.21622014  T       1.68388101       0.02328696       0.30797225
Si       2.10106141       1.46474465      19.07102181  T      -0.18641177       0.29961921      -0.85152735
Si       0.48029073       2.67772127      16.91438822  T      -0.26715861       0.25591026      -1.39658008
Si       4.94045760       1.56877897      17.63257911  T       0.74128334      -0.50689060      -0.22613451
Si       5.95912960       3.74710806      19.68519916  T       0.00384833      -0.80834363      -0.35040352
Si       7.68683248       1.23917579      20.56687024  T       0.67782961       0.77773495      -1.29319855
Si       2.57122947       8.74941688      20.36146040  T      -0.30454419       0.23837472       0.50787010
Si       2.91219139       6.71747624      18.14368774  T      -0.02810655       0.47421363       0.57841137
Si       1.09183693       6.13875966      21.33503149  T       0.46256861      -0.43993972      -0.95639739
Si       0.15999855       5.56050903      18.38788722  T      -0.90224788      -0.10903657       0.07599429
Si       6.11502972       9.22342362      22.47088405  T      -1.20870343      -0.16420321       0.40243276
Si       7.11492201       6.25852545      18.15339946  T      -0.69946091       0.30901998       0.40386675
Si       7.17459736       9.47980878      18.16959613  T       0.15643650      -0.49825726      -0.14463824
Si       2.10000000       3.98000000       2.32000000  F       0.00000000       0.00000000       0.00000000
Si       2.92611508       3.63855591       5.03921648  T      -1.00243085      -0.36927678      -0.67792665
Si       0.89000000       1.15000000       1.77000000  F       0.00000000       0.00000000       0.00000000
Si       8.34467800       1.07050878       5.60293903  T       0.94863477       0.51001717       0.35324025
Si       5.48893128       1.98010641       4.42899329  T       1.64960232       0.02703105      -0.33813042
Si       4.80365743       5.82895099       6.11880628  T       0.42903213      -0.09886380       0.77761392
Si       0.05595136       9.11435728       3.94725768  T       0.48964193       0.45876977       1.08566977
Si       6.19197331       5.16964956       3.64881012  T      -0.12515620      -1.05923805      -1.23154255
Si       5.42000000       9.77000000       2.06000000  F       0.00000000       0.00000000       0.00000000
Si       8.42321874       7.03291259       2.75637230  T       0.72643846      -0.31807637      -0.04106003
Si       3.71133659       4.27181623       9.92460822  T      -0.17993359      -0.18572711       0.39588173
Si       2.30270952       1.60766289       8.95899661  T      -0.94733421       0.41394359      -0.19892306
Si       0.47730932       2.82502275       6.94992692  T      -0.60615598      -0.07906226       0.74123416
Si       5.02191871       1.22392015       7.47275890  T       0.15272599       0.49470816       0.08753747
Si       6.56466298       3.46234806       9.04283777  T      -0.03542795       0.36806469       0.51604824
Si       7.94722610       0.98003646      10.48522371  T      -1.22731012      -1.10627593      -0.51287714
Si       3.54927851       8.23298399      10.42601816  T       0.12518523      -0.28400283       0.06965702
Si       2.96977544       6.90388837       8.03400236  T      -1.12443068      -0.26621666      -0.75430563
Si       0.92759160       6.44646501      11.00750769  T      -0.50790624      -0.53410025       0.83550953
Si       0.28957173       5.79433078       7.96889815  T       0.90169567      -0.26819531      -1.62627670
Si       5.90007585       7.05159144      11.57633900  T      -0.38495316       0.07092871       1.35141507
Si       7.43025707       6.08737511       7.78355986  T      -0.23751790       0.31701599      -0.57883265
Si       7.36710939       9.29291396       8.03031234  T       0.73878936      -0.48411524       0.93325117
Si       7.93000000       1.02000000       0.50000000  F       0.00000000       0.00000000       0.00000000
Si       0.91000000       6.44000000       0.98000000  F       0.00000000       0.00000000       0.00000000
Si       5.91000000       7.08000000       1.49000000  F       0.00000000       0.00000000       0.00000000
C        4.98385448       5.01566105      24.58480098  T       0.88003790      -0.08119556     -13.19880969
F        5.79285629       6.05938394      24.58789055  T      -0.42812670      -0.02613713     -20.81078953
F        5.79980602       3.93429561      24.58862037  T      -0.49294286       0.17691761     -20.78231238
153
Lattice="10.0 0.0 0.0 0.0 10.0 0.0 0.0 0.0 43.74" Properties=species:S:1:pos:R:3:move_mask:L:1:momenta:R:3 etch=trj_CF2_30eV_case1 idx=0 index=0 source=trj_CF2_30eV_case1/0000/OUTCAR converged=T time_fs=21.0 pbc="T T T"
O        2.21172648       4.60783085      13.85906157  T      -0.61911008       1.02159883       0.47759666
O        1.47499530       2.46550616      12.43941995  T      -0.38626652      -0.11910457      -1.69887138
O        3.86028098       2.63922598      14.24009977  T      -0.43881491      -1.13764637       0.65773504
O        3.79274092       4.57231007      16.10561540  T      -0.94515577      -0.70394097       0.26694110
O        1.68084279       2.88860351      15.86918494  T       1.21063027       0.22461906       0.21908030
O        5.05875503       1.67786441      16.06600664  T      -0.31203427       0.61696147      -1.15816189
O        5.13485379       0.88405482      13.26724135  T      -1.52364258       0.90819513       0.39573234
O        6.15510947       3.60817625      14.04943522  T      -0.06778359       0.17941480       0.03239575
O        7.08245321       1.39826266      14.68817593  T       0.09156842       0.99636720       0.75961733
O        9.02722651       2.28592238      16.35073037  T      -0.51550486       0.39222985       1.24654313
O        9.57997765       0.41537388      14.76433716  T       0.97086317      -0.24346667       0.21030785
O        0.91461287       9.74821913      12.62805974  T       0.36318880       0.09668522      -0.44279377
O        1.12949074       8.23546156      14.62614753  T      -0.66227052      -0.26213509       0.21341165
O        9.91142784       6.96470939      12.16229111  T       1.48632671      -0.61989325       1.12806519
O        5.23192091       6.17276449      14.58585254  T       1.18259973      -0.37006632       0.61561733
O        5.64719344       5.58076295      12.17438249  T       0.24732245      -0.65125797      -0.68755614
O        7.76749292       5.82346530      13.63903180  T      -0.47517485       0.34638383      -0.03375969
O        5.58960137       8.27791885      12.62535365  T      -0.04016560      -0.51118070       0.04097176
O        8.61043726       8.37403623      13.62945526  T       0.47724005      -0.29621324      -0.18275236
O        2.42940127       5.18007782      21.48455565  T       0.09042991      -0.68025318       0.28448039
O        0.19839998       6.16703634      22.76581678  T       0.13200720      -0.35742037      -0.46548841
O        1.86522509       0.16407532      20.02490815  T       0.34301048       0.45077721       0.89841720
O        2.23589139       2.96268412      19.94531105  T       0.50334445      -1.35113307       0.08394934
O        3.44872137       1.28054251      18.21320605  T      -0.18689812       0.31680590       0.18155615
O        0.87661765       1.56224319      18.03873762  T      -0.81767965       0.87678661       0.30339542
O        0.40833140       4.08980412      17.76968890  T      -0.00033457      -0.87253477       0.26694739
O        9.09423652       1.36393146      21.42840529  T       0.00111041       0.23563219       0.36051544
O        5.42294287       3.01497407      18.28828858  T       0.30647760       0.69863782      -0.87949630
O        4.65319250       3.94246182      20.62702789  T       0.40184775      -0.26932906       0.23848779
O        7.07184279       2.71449878      20.28460957  T      -0.24149712       0.42582570       0.91754718
O        6.42787275       0.47570115      21.44607086  T       0.26773118       0.62620930       0.54387863
O        6.61473612       5.22529243      19.38595610  T      -0.07635536       0.16925279      -0.17808299
O        7.93653520       9.80741237      16.70878042  T      -0.05805675      -0.08044229       0.64991718
O        3.83295334       6.99743556      16.85958951  T      -0.01664947      -0.45192396      -0.41555441
O        3.77061671       9.40857862      21.41627403  T       0.81322978      -0.29873948      -0.35596178
O        3.21930544       7.98476933      19.12259207  T       0.46457177       0.35077473       0.10710451
O        1.25518374       6.64557425      17.73260619  T       0.44038093       0.28457811      -0.10839639
O        3.20489928       5.27290775      18.87549037  T      -0.03566706       0.35021254      -0.23211168
O        0.30570786       5.56453519      20.06322383  T      -1.47534665       0.14168248      -0.76687184
O        1.51782691       7.71762367      21.10370665  T       0.13334734       1.09461207       0.72754117
O        4.78989091       8.46259690      21.97141659  T      -0.83449591      -0.75697963       0.47020491
O        8.02289684       0.20037762      19.36258223  T       0.35211811      -0.03936327      -0.09343307
O        6.90896340       8.82843767      23.72475057  T      -0.56411820      -0.24230142      -0.80631090
O        6.21605768       5.78094006      16.89847250  T      -0.40018367       0.49797622      -0.03288807
O        5.75261203       0.25883918      18.20442086  T      -0.28707216      -0.64938989       0.28743180
O        8.68178969       6.02157417      17.91359576  T      -0.12058612       0.58467014       0.14333450
O        6.97040316       7.89149400      18.40185524  T      -0.22370882      -0.43822706      -0.18054021
O        2.14176767       4.63516798       3.82810138  T      -1.34355892       1.03319465       0.42296976
O        1.49814010       2.45650753       2.38378086  T       0.47455608       0.56455679      -2.46741534
O        3.89549940       2.69162710       4.17682069  T      -0.19823797      -0.31643706      -0.22068934
O        3.72003871       4.54095895       6.12846312  T       1.39658516       0.60231789       0.29381140
O        1.66039112       2.92821195       5.80877166  T      -0.35714240       0.26416451      -0.22252670
O        4.87128909       1.32268219       5.85190082  T       0.60028125      -0.09956539       0.66800843
O        5.21287046       0.86455045       3.20483442  T      -0.36291068       0.70938652      -0.45748049
O        6.17360458       3.61038657       4.05206800  T       0.19857142      -0.32707527       0.12686432
O        7.07989131       1.44254844       4.73756447  T      -0.21337576       1.69817453       1.10481879
O        9.10139012       2.37983423       6.34209303  T       0.27693961      -1.37289014       0.46194315
O        9.62504561       0.51229303       4.67832541  T       0.71438093       1.21242870      -0.56570046
O        0.94561766       9.76011152       2.55414233  T       0.85874650      -0.56104978      -0.88837148
O        1.11157349       8.23264417       4.59587975  T      -0.26729994      -0.90762656       0.18537862
O        9.87000000       6.98000000       2.02000000  F       0.00000000       0.00000000       0.00000000
O        5.23755608       6.09945026       4.58628854  T       1.10550387      -0.92933973       0.66077265
O        5.59000000       5.63000000       2.17000000  F       0.00000000       0.00000000       0.00000000
O        7.76153437       5.81983946       3.61021199  T      -0.49786561       0.06777794      -0.17651702
O        5.59877050       8.25638786       2.54952116  T      -0.13839995       0.16573441      -1.25633705
O        8.60772618       8.38168791       3.59059231  T       0.85522496       0.34843672      -0.30390033
O        3.48032868       4.16080603      11.50908715  T      -0.23779602      -0.23632094       0.02410872
O        1.13089062       4.85772014      11.37474129  T      -0.24485237      -0.01908309       0.29147635
O        1.73136634       0.89462612      10.36053367  T       0.39005793      -0.15897192      -0.79963292
O        2.75269258       3.13158721       9.30144426  T      -0.79879864      -0.13317988      -0.47522005
O        3.58225242       1.01213858       8.21184694  T       1.23000895       0.32403165       0.27303858
O        1.00580027       1.61238144       7.95834300  T      -0.83938457      -0.28765371       0.30862957
O        0.43896675       4.17835412       7.87256789  T       0.11104921       0.41657742      -0.28356438
O        9.25215832       1.31556575      11.34133891  T       0.44507275       0.00098856      -0.77051508
O        5.97979060       2.55293732       7.80702736  T       0.44897252      -0.40349199       0.09385416
O        5.26499390       4.05946366       9.75915815  T      -0.30771633       0.45295376       0.87586982
O        7.39756656       2.45982271      10.03723972  T       0.68804475       0.02643477      -0.06595058
O        6.74160114       0.19051614      11.31298654  T       0.11278295       0.59282948      -0.79706287
O        7.48583683       4.81644830       8.88136626  T      -0.37912996      -0.09918117      -1.42774844
O        8.06210284       9.79267430       6.59926006  T      -0.62425055       0.53823722       0.65957027
O        4.09198583       7.05638461       6.83297901  T      -0.83674605       0.79545873       0.76496875
O        4.01586587       9.58445748      11.18524770  T       0.79813362       0.16498860      -0.71338141
O        3.05252490       8.31156920       8.84296624  T      -0.19014578      -0.44905344      -0.03437937
O        1.53702657       6.58923003       7.42463986  T       0.23321548      -0.18921875      -1.54987503
O        3.32034074       5.63679259       9.06636464  T      -0.58356391       0.81316937       0.36354159
O        0.13912113       6.41746083       9.53604182  T      -0.46244227      -1.23611054      -0.50759357
O        2.26815932       7.37245408      11.13493824  T       0.96506298       0.19304149       0.40193821
O        4.93640453       7.37662885      10.28901700  T       0.17173610      -0.51151464       1.61599204
O        8.20604680       0.02674374       9.17190418  T       0.86469683       0.14830833       0.67129739
O        7.50562185       7.19415729      11.30220650  T      -0.31790550      -0.28492918      -0.53543229
O        6.21182446       5.51608959       6.86763441  T       0.29491683       0.24194623      -0.27934293
O        5.81163904       9.86832783       7.99493894  T       0.01673800      -0.12549212      -0.50602141
O        8.89343323       6.09074960       7.17573160  T       0.75109585       0.23993348       0.42060099
O        7.21513939       7.67395098       8.18302233  T      -0.70875037      -0.21355154       0.20579143
O        3.55000000       4.18000000       1.53000000  F       0.00000000       0.00000000       0.00000000
O        1.14000000       4.89000000       1.35000000  F       0.00000000       0.00000000       0.00000000
O        9.29000000       1.31000000       1.44000000  F       0.00000000       0.00000000       0.00000000
O        6.84000000       0.20000000       1.30000000  F       0.00000000       0.00000000       0.00000000
O        3.95000000       9.60000000       1.25000000  F       0.00000000       0.00000000       0.00000000
O        2.28000000       7.42000000       1.08000000  F       0.00000000       0.00000000       0.00000000
O        7.52000000       7.21000000       1.37000000  F       0.00000000       0.00000000       0.00000000
Si       2.11985785       3.95702916      12.33391351  T      -0.23338658       0.12162701       0.75441122
Si       2.91174534       3.63248022      15.04387464  T       0.01557136       0.14604188      -0.76494498
Si       0.84968198       1.14471281      11.70707642  T      -0.97848867      -0.44726086      -0.96041417
Si       8.32270571       1.01266808      15.61241297  T       0.80342490       0.81177203       0.36922901
Si       5.50862245       2.04866025      14.43653772  T       1.86346717       1.14235123       0.44437908
Si       4.75967743       5.86476000      16.10735393  T       0.01058530      -1.53801481       0.66217146
Si       0.02143122       9.14567664      13.88356799  T       0.01118574       0.60380698       0.09548427
Si       6.19171023       5.18136205      13.62120113  T       0.11331884      -0.97345821      -0.54970184
Si       5.40250307       9.77954350      12.14628462  T      -1.14071784       1.53923805       1.65746147
Si       8.39448250       7.03224313      12.70260479  T      -0.07133280      -0.13529262      -0.72894444
Si       3.10548657       4.30743253      20.21740056  T       1.69906174       0.05440630       0.36479172
Si       2.10054190       1.46611678      19.06818721  T      -0.11226340       0.48347043      -0.76749453
Si       0.47936130       2.67880458      16.90972504  T      -0.26103957       0.36363706      -1.26859889
Si       4.94308144       1.56705712      17.63200146  T       0.75728914      -0.47696529      -0.10767951
Si       5.95912878       3.74426121      19.68369924  T      -0.00336534      -0.81718190      -0.50772724
Si       7.68906780       1.24174822      20.56259820  T       0.60019190       0.69225965      -1.14706847
Si       2.57011840       8.75025483      20.36352745  T      -0.32904192       0.24203679       0.67275331
Si       2.91172152       6.71903271      18.14568311  T      -0.23922124       0.41706361       0.56014756
Si       1.09351539       6.13729615      21.33199686  T       0.49570020      -0.39573364      -0.78005379
Si       0.15694038       5.56017771      18.38812301  T      -0.84471791      -0.08137662       0.05572705
Si       6.11115503       9.22324754      22.47227708  T      -1.00869019       0.06516170       0.38968704
Si       7.11237237       6.25955442      18.15494570  T      -0.75769049       0.27808467       0.47912224
Si       7.17520262       9.47821672      18.16874918  T       0.18945777      -0.41265482      -0.33818165
Si       2.10000000       3.98000000       2.32000000  F       0.00000000       0.00000000       0.00000000
Si       2.92234631       3.63733295       5.03672334  T      -1.14860738      -0.32633514      -0.74432882
Si       0.89000000       1.15000000       1.77000000  F       0.00000000       0.00000000       0.00000000
Si       8.34832260       1.07219839       5.60424689  T       1.13244035       0.45453022       0.39376229
Si       5.49461566       1.98027789       4.42778794  T       1.59756792       0.07130262      -0.34901725
Si       4.80512092       5.82831325       6.12143469  T       0.40584683      -0.26091404       0.72674349
Si       0.05743990       9.11641034       3.95085464  T       0.36343690       0.71459034       0.97048762
Si       6.19160988       5.16589560       3.64457908  T      -0.08260487      -1.08667977      -1.18562602
Si       5.42000000       9.77000000       2.06000000  F       0.00000000       0.00000000       0.00000000
Si       8.42574045       7.03177959       2.75614868  T       0.71413850      -0.32892834      -0.08590675
Si       3.71057397       4.27124780       9.92580529  T      -0.25929182      -0.13855710       0.28657321
Si       2.29913706       1.60921700       8.95847527  T      -1.09105224       0.47164649      -0.10146679
Si       0.47565296       2.82468180       6.95271384  T      -0.33958342      -0.11534213       0.85207188
Si       5.02260078       1.22555120       7.47299211  T       0.23899115       0.43689761       0.04669362
Si       6.56463366       3.46357561       9.04478129  T       0.01731751       0.33279421       0.59509512
Si       7.94259469       0.97619414      10.48340522  T      -1.41644564      -1.08706209      -0.52495495
Si       3.54946646       8.23190362      10.42619638  T      -0.01665777      -0.33373002       0.03135739
Si       2.96615669       6.90290182       8.03148708  T      -0.94424915      -0.29694763      -0.68211706
Si       0.92568152       6.44444055      11.01036598  T      -0.58032524      -0.62192354       0.79515273
Si       0.29239946       5.79329683       7.96357356  T       0.71580880      -0.32119219      -1.41663804
Si       5.89869628       7.05200082      11.58091114  T      -0.40296401       0.16134182       1.26222982
Si       7.42925782       6.08842518       7.78175815  T      -0.33114460       0.28362966      -0.45214617
Si       7.36946600       9.29127003       8.03324704  T       0.60708978      -0.45426126       0.74580228
Si       7.93000000       1.02000000       0.50000000  F       0.00000000       0.00000000       0.00000000
Si       0.91000000       6.44000000       0.98000000  F       0.00000000       0.00000000       0.00000000
Si       5.91000000       7.08000000       1.49000000  F       0.00000000       0.00000000       0.00000000
C        4.99120440       5.01483441      24.47684343  T       0.91110262      -0.12092923     -13.20298867
F        5.79062459       6.05918547      24.48029755  T      -0.43209510      -0.04868962     -20.80898900
F        5.79716074       3.93537823      24.48117941  T      -0.52704004       0.23964818     -20.77871324
153
Lattice="10.0 0.0 0.0 0.0 10.0 0.0 0.0 0.0 43.74" Properties=species:S:1:pos:R:3:move_mask:L:1:momenta:R:3 etch=trj_CF2_30eV_case1 idx=0 index=0 source=trj_CF2_30eV_case1/0000/OUTCAR converged=T time_fs=22.0 pbc="T T T"
O        2.20801913       4.61382149      13.86198878  T      -0.58812188       0.92838851       0.47476971
O        1.47252186       2.46463753      12.42895600  T      -0.41835371      -0.16176207      -1.70807231
O        3.85763904       2.63221744      14.24406704  T      -0.42214774      -1.14321638       0.63359051
O        3.78674128       4.56768032      16.10715925  T      -1.00651408      -0.80153750       0.23643078
O        1.68850994       2.89002011      15.87027564  T       1.28254860       0.23524212       0.13811421
O        5.05689849       1.68168878      16.05861912  T      -0.29281146       0.62759255      -1.24026695
O        5.12553097       0.88967999      13.26973247  T      -1.51130232       0.92346172       0.41528024
O        6.15468423       3.60943394      14.04953822  T      -0.07077549       0.22879013       0.00127910
O        7.08313949       1.40442643      14.69284914  T       0.13415509       1.01019034       0.76244669
O        9.02395564       2.28848022      16.35838366  T      -0.55112856       0.43983360       1.24443164
O        9.58598848       0.41396285      14.76564244  T       0.98411518      -0.21287777       0.21772540
O        0.91671564       9.74900464      12.62529922  T       0.32086963       0.15815056      -0.45488699
O        1.12570896       8.23353246      14.62772688  T      -0.56953661      -0.36633287       0.30098214
O        9.92068574       6.96077220      12.16915756  T       1.52402293      -0.66130441       1.11046739
O        5.23927042       6.17030056      14.58960753  T       1.21037518      -0.43325533       0.60731590
O        5.64851936       5.57669973      12.16985138  T       0.18517185      -0.67269445      -0.78597519
O        7.76446500       5.82558241      13.63872927  T      -0.51002604       0.34329380      -0.06522753
O        5.58943557       8.27432678      12.62600530  T      -0.01439790      -0.65160456       0.17236332
O        8.61318442       8.37222553      13.62828093  T       0.41735597      -0.29304373      -0.19994812
O        2.43001906       5.17582818      21.48608829  T       0.11016994      -0.70331642       0.21376906
O        0.19939163       6.16479156      22.76263049  T       0.19095667      -0.37382018      -0.57253677
O        1.86730815       0.16690353      20.03042385  T       0.33548812       0.47144801       0.89670988
O        2.23896543       2.95388827      19.94559979  T       0.50052549      -1.50765381       0.01177254
O        3.44763080       1.28247551      18.21424499  T      -0.16497769       0.31272830       0.15470606
O        0.87147202       1.56755616      18.04057577  T      -0.85725947       0.85271122       0.29538440
O        0.40823616       4.08446650      17.77134358  T      -0.03129086      -0.86170531       0.27304535
O        9.09419412       1.36541807      21.43055244  T      -0.01531308       0.24867340       0.33842989
O        5.42494357       3.01920134      18.28299115  T       0.34509327       0.67673484      -0.84615325
O        4.65558242       3.94082697      20.62862945  T       0.37737420      -0.26326116       0.28303830
O        7.07046899       2.71711299      20.29025327  T      -0.20580126       0.42541177       0.92009306
O        6.42972339       0.47940890      21.44950109  T       0.33477795       0.58075668       0.57323108
O        6.61431210       5.22643586      19.38479966  T      -0.06264522       0.20135625      -0.19765784
O        7.93605786       9.80695589      16.71301689  T      -0.09613410      -0.06671124       0.72692075
O        3.83297887       6.99466446      16.85692578  T       0.02361259      -0.45086117      -0.45025662
O        3.77557793       9.40668744      21.41398555  T       0.80184643      -0.31677691      -0.38965487
O        3.22225022       7.98689331      19.12314339  T       0.49376704       0.34114589       0.07326152
O        1.25816455       6.64721862      17.73223268  T       0.52814971       0.24975502      -0.01274256
O        3.20471331       5.27511244      18.87419492  T      -0.02452909       0.36561612      -0.18742320
O        0.29636453       5.56534479      20.05800326  T      -1.56455905       0.12374499      -0.92774375
O        1.51875183       7.72438989      21.10813687  T       0.16617137       1.10458494       0.71622128
O        4.78417159       8.45761042      21.97414242  T      -1.02537159      -0.86615935       0.41872614
O        8.02518270       0.20021315      19.36207268  T       0.39164518      -0.01450515      -0.07336695
O        6.90541827       8.82688015      23.71973123  T      -0.58854058      -0.26603924      -0.82500993
O        6.21341110       5.78397649      16.89818070  T      -0.46005519       0.49041092      -0.06047141
O        5.75078447       0.25487112      18.20616116  T      -0.30827250      -0.64229172       0.27894232
O        8.68117339       6.02515619      17.91449977  T      -0.08109020       0.58195003       0.15061246
O        6.96896403       7.88859860      18.40083285  T      -0.24516595      -0.50180447      -0.15214443
O        2.13363259       4.64107748       3.83075457  T      -1.30556102       0.88973620       0.43970554
O        1.50117301       2.46003744       2.36848500  T       0.51288997       0.58349091      -2.51414954
O        3.89423051       2.68972556       4.17542019  T      -0.21580690      -0.30207566      -0.23463877
O        3.72887116       4.54490826       6.13033160  T       1.47493834       0.67809798       0.31108469
O        1.65827898       2.92994424       5.80733399  T      -0.33186146       0.29962014      -0.24449553
O        4.87498497       1.32208995       5.85620324  T       0.60345418      -0.09218208       0.72849724
O        5.21076415       0.86895065       3.20202783  T      -0.32239110       0.72291879      -0.45690614
O        6.17483606       3.60833567       4.05274065  T       0.20232961      -0.34067209       0.09134578
O        7.07864919       1.45308031       4.74429663  T      -0.18681842       1.73000527       1.08906914
O        9.10235181       2.37118775       6.34468679  T       0.03851117      -1.44048064       0.38457002
O        9.62925312       0.51977810       4.67478121  T       0.65573704       1.22492882      -0.58866730
O        0.95090521       9.75663768       2.54870579  T       0.86325010      -0.56971511      -0.88164338
O        1.11051066       8.22645706       4.59744685  T      -0.08119913      -1.10556638       0.32369143
O        9.87000000       6.98000000       2.02000000  F       0.00000000       0.00000000       0.00000000
O        5.24439757       6.09376726       4.59028611  T       1.12263224      -0.92098966       0.64012817
O        5.59000000       5.63000000       2.17000000  F       0.00000000       0.00000000       0.00000000
O        7.75840021       5.82014675       3.60912282  T      -0.52161608       0.03288437      -0.17877072
O        5.59790488       8.25706417       2.54203321  T      -0.14386220       0.05439967      -1.18038789
O        8.61292926       8.38402676       3.58880713  T       0.83827528       0.41220392      -0.27808386
O        3.47910638       4.15933695      11.50942230  T      -0.16114508      -0.24235180       0.08576439
O        1.12935579       4.85769996      11.37656277  T      -0.25456211       0.01147516       0.30209985
O        1.73390051       0.89366263      10.35530502  T       0.43375185      -0.15556028      -0.90054723
O        2.74774680       3.13075953       9.29848365  T      -0.81040745      -0.13277094      -0.48808104
O        3.59001669       1.01409902       8.21344238  T       1.29220745       0.31630203       0.24975178
O        1.00061407       1.61074219       7.96020796  T      -0.84946481      -0.24616642       0.29836546
O        0.43966913       4.18087888       7.87073229  T       0.11793213       0.40257220      -0.31495162
O        9.25510842       1.31551879      11.33669603  T       0.51161224      -0.01682353      -0.74330683
O        5.98249909       2.55043910       7.80761023  T       0.43412199      -0.40816263       0.09767717
O        5.26318382       4.06221177       9.76458552  T      -0.27892008       0.44095627       0.89037832
O        7.40174878       2.45997723      10.03672162  T       0.67336091       0.02501918      -0.10324092
O        6.74247276       0.19430570      11.30795843  T       0.16507624       0.63884373      -0.83580353
O        7.48351772       4.81597166       8.87243006  T      -0.37605909      -0.05705603      -1.48132853
O        8.05822382       9.79595734       6.60348113  T      -0.63760667       0.53171559       0.71302565
O        4.08661526       7.06138148       6.83784146  T      -0.90727879       0.82781847       0.81387786
O        4.02080109       9.58566416      11.18090792  T       0.80926272       0.22804842      -0.69985799
O        3.05131448       8.30884209       8.84294325  T      -0.20404258      -0.43851535       0.02769761
O        1.53851489       6.58824892       7.41458656  T       0.24957631      -0.13125664      -1.72413178
O        3.31667316       5.64180982       9.06858373  T      -0.61057504       0.81806950       0.36067069
O        0.13649771       6.40973429       9.53285616  T      -0.39052568      -1.27967761      -0.52742144
O        2.27431905       7.37379981      11.13734261  T       1.03657965       0.24238184       0.38165975
O        4.93774167       7.37317067      10.29914229  T       0.26094576      -0.61370841       1.67893638
O        8.21160408       0.02770830       9.17636332  T       0.94401985       0.16246800       0.77651589
O        7.50371057       7.19235696      11.29910800  T      -0.30277477      -0.30135349      -0.47270029
O        6.21361611       5.51761240       6.86586900  T       0.28883552       0.25417875      -0.29542855
O        5.81186701       9.86761098       7.99182809  T       0.05911004      -0.10880513      -0.50639421
O        8.89849996       6.09231726       7.17800268  T       0.89403585       0.27147076       0.31866177
O        7.21077052       7.67253797       8.18432075  T      -0.71376118      -0.24605261       0.21722018
O        3.55000000       4.18000000       1.53000000  F       0.00000000       0.00000000       0.00000000
O        1.14000000       4.89000000       1.35000000  F       0.00000000       0.00000000       0.00000000
O        9.29000000       1.31000000       1.44000000  F       0.00000000       0.00000000       0.00000000
O        6.84000000       0.20000000       1.30000000  F       0.00000000       0.00000000       0.00000000
O        3.95000000       9.60000000       1.25000000  F       0.00000000       0.00000000       0.00000000
O        2.28000000       7.42000000       1.08000000  F       0.00000000       0.00000000       0.00000000
O        7.52000000       7.21000000       1.37000000  F       0.00000000       0.00000000       0.00000000
Si       2.11883909       3.95760832      12.33667392  T      -0.34947902       0.20894892       0.82309936
Si       2.91169562       3.63312681      15.04123874  T      -0.04329583       0.22324039      -0.74258474
Si       0.84627868       1.14304246      11.70370384  T      -0.96507783      -0.50816989      -0.97037376
Si       8.32545914       1.01532366      15.61378151  T       0.77124335       0.70519786       0.41331699
Si       5.51503952       2.05263603      14.43815290  T       1.80312831       1.13068604       0.47841789
Si       4.75983706       5.85943364      16.10966095  T       0.07876263      -1.50769290       0.65556841
Si       0.02141059       9.14799255      13.88373965  T      -0.02103823       0.71842486       0.00030581
Si       6.19222715       5.17791834      13.61962401  T       0.18146850      -0.99257309      -0.35369888
Si       5.39840071       9.78523744      12.15197350  T      -1.20200569       1.71173596       1.59298580
Si       8.39426480       7.03176700      12.70001642  T      -0.05134742      -0.13734106      -0.75177428
Si       3.11142373       4.30765327      20.21875805  T       1.69178368       0.06857558       0.40900189
Si       2.10026578       1.46811593      19.06566358  T      -0.04756262       0.65763646      -0.67399766
Si       0.47848453       2.68026468      16.90552103  T      -0.23687532       0.47115990      -1.13454462
Si       4.94574386       1.56544699      17.63180363  T       0.76327643      -0.44303799      -0.00953095
Si       5.95911164       3.74140613      19.68164677  T      -0.00547694      -0.81300930      -0.66582612
Si       7.69103021       1.24401287      20.55886101  T       0.52200012       0.60197169      -0.98769159
Si       2.56893882       8.75111743      20.36615607  T      -0.34349176       0.25256812       0.82830303
Si       2.91052808       6.72040163      18.14759131  T      -0.44115772       0.36724886       0.52850919
Si       1.09529406       6.13599747      21.32956546  T       0.51944661      -0.34607137      -0.61242746
Si       0.15409968       5.55993412      18.38825865  T      -0.77812648      -0.05890397       0.01866504
Si       6.10795970       9.22388668      22.47358230  T      -0.82167131       0.30113178       0.35176493
Si       7.10962766       6.26046298      18.15674270  T      -0.81072244       0.24015136       0.54687880
Si       7.17592096       9.47691793      18.16724164  T       0.22095481      -0.33101327      -0.52159010
Si       2.10000000       3.98000000       2.32000000  F       0.00000000       0.00000000       0.00000000
Si       2.91810598       3.63629462       5.03402958  T      -1.27160431      -0.26383631      -0.79277962
Si       0.89000000       1.15000000       1.77000000  F       0.00000000       0.00000000       0.00000000
Si       8.35257852       1.07367883       5.60568760  T       1.29717590       0.39045793       0.42899881
Si       5.50008674       1.98060652       4.42656442  T       1.52772139       0.11680859      -0.34849335
Si       4.80648498       5.82715683       6.12389805  T       0.37232631      -0.39472388       0.68335486
Si       0.05850903       9.11934757       3.95404428  T       0.25132022       0.96287292       0.85351216
Si       6.19139540       5.16205264       3.64052971  T      -0.04013617      -1.11011169      -1.12780879
Si       5.42000000       9.77000000       2.06000000  F       0.00000000       0.00000000       0.00000000
Si       8.42820553       7.03061699       2.75577713  T       0.69398490      -0.33498458      -0.12550101
Si       3.70950561       4.27085113       9.92660234  T      -0.35438400      -0.08764470       0.16772629
Si       2.29510597       1.61094317       8.95827241  T      -1.20890637       0.51212075      -0.01719141
Si       0.47493691       2.82421853       6.95588256  T      -0.07028728      -0.14925753       0.95870631
Si       5.02360003       1.22697051       7.47309118  T       0.33402081       0.37384907       0.01102361
Si       6.56477574       3.46466983       9.04699824  T       0.06242109       0.29193531       0.67212457
Si       7.93734806       0.97245580      10.48156390  T      -1.57820976      -1.04653930      -0.52587160
Si       3.54917067       8.23065031      10.42623301  T      -0.15056613      -0.38275293      -0.01104876
Si       2.96317129       6.90181698       8.02924147  T      -0.76329303      -0.32243505      -0.60032936
Si       0.92355685       6.44212507      11.01304765  T      -0.63027668      -0.70024839       0.73457922
Si       0.29458557       5.79209669       7.95899761  T       0.53609249      -0.36264710      -1.19893542
Si       5.89726364       7.05270726      11.58516488  T      -0.41501059       0.24009572       1.16995410
Si       7.42795923       6.08936053       7.78039123  T      -0.40787993       0.25155857      -0.33081622
Si       7.37134787       9.28974645       8.03553717  T       0.46797643      -0.41524558       0.56560109
Si       7.93000000       1.02000000       0.50000000  F       0.00000000       0.00000000       0.00000000
Si       0.91000000       6.44000000       0.98000000  F       0.00000000       0.00000000       0.00000000
Si       5.91000000       7.08000000       1.49000000  F       0.00000000       0.00000000       0.00000000
C        4.99866802       5.01368557      24.36884871  T       0.90756830      -0.15967288     -13.20793885
F        5.78841479       6.05889690      24.37271543  T      -0.41961977      -0.06110113     -20.80641058
F        5.79438581       3.93675243      24.37375726  T      -0.54279931       0.28922282     -20.77501451
153
Lattice="10.0 0.0 0.0 0.0 10.0 0.0 0.0 0.0 43.74" Properties=species:S:1:pos:R:3:move_mask:L:1:momenta:R:3 etch=trj_CF2_30eV_case1 idx=0 index=0 source=trj_CF2_30eV_case1/0000/OUTCAR converged=T time_fs=23.0 pbc="T T T"
O        2.20450880       4.61921682      13.86487924  T      -0.55507727       0.82796716       0.46565086
O        1.46987035       2.46354265      12.41846412  T      -0.44416187      -0.19256267      -1.70798981
O        3.85509293       2.62521195      14.24786971  T      -0.40779206      -1.13645621       0.60423671
O        3.78041212       4.56249825      16.10852428  T      -1.05208619      -0.88332591       0.20889604
O        1.69654285       2.89147471      15.87090275  T       1.32921187       0.23682505       0.06852851
O        5.05515873       1.68555746      16.05086247  T      -0.27401624       0.63132685      -1.27803052
O        5.11631700       0.89538634      13.27233565  T      -1.48817931       0.93466385       0.43223208
O        6.15423998       3.61096795      14.04945305  T      -0.07398835       0.26897780      -0.02873290
O        7.08412211       1.41065329      14.69753523  T       0.18797121       1.01691392       0.76376675
O        9.02044833       2.29131059      16.36598936  T      -0.59235811       0.48090509       1.23109990
O        9.59203046       0.41279329      14.76703957  T       0.98109330      -0.16493721       0.24018997
O        0.91854400       9.75014950      12.62249030  T       0.27393276       0.21359093      -0.45856040
O        1.12249547       8.23096537      14.62984033  T      -0.47776286      -0.46945985       0.38699125
O        9.93008562       6.95660359      12.17594479  T       1.53263001      -0.69520000       1.10227133
O        5.24677071       6.16743811      14.59330759  T       1.23160142      -0.49976515       0.59783722
O        5.64947490       5.57249931      12.16476056  T       0.12703012      -0.69595817      -0.86922204
O        7.76124307       5.82768106      13.63822665  T      -0.53819285       0.34041684      -0.09888714
O        5.58941806       8.26999822      12.62747992  T       0.00798844      -0.75016984       0.30886556
O        8.61556035       8.37044458      13.62699879  T       0.35658928      -0.28639806      -0.21780949
O        2.43074630       5.17144996      21.48717028  T       0.12584023      -0.72207907       0.13767192
O        0.20074322       6.16244618      22.75878719  T       0.24910765      -0.39020396      -0.67923393
O        1.86934412       0.16987332      20.03590214  T       0.32772178       0.49681138       0.88624142
O        2.24206328       2.94424081      19.94547407  T       0.51116169      -1.62805562      -0.05078834
O        3.44672933       1.28438112      18.21508378  T      -0.12550711       0.30790985       0.11644939
O        0.86610559       1.57270128      18.04236519  T      -0.88936557       0.82214360       0.28763451
O        0.40794158       4.07926896      17.77305115  T      -0.06515961      -0.82701191       0.28408098
O        9.09404473       1.36698533      21.43255620  T      -0.03369567       0.26190733       0.31388201
O        5.42717827       3.02326669      18.27789788  T       0.38264445       0.64593202      -0.81315100
O        4.65783501       3.93922867      20.63050115  T       0.35744034      -0.25745768       0.32652786
O        7.06931721       2.71971898      20.29589890  T      -0.16933612       0.42318067       0.91814265
O        6.43197935       0.48282486      21.45310570  T       0.39964599       0.53141064       0.60052793
O        6.61395745       5.22774480      19.38353978  T      -0.05385088       0.22298962      -0.21163785
O        7.93536909       9.80660899      16.71767155  T      -0.12674286      -0.04476183       0.78578126
O        3.83322833       6.99189821      16.85408130  T       0.05609357      -0.45040181      -0.47426550
O        3.78045172       9.40469485      21.41148827  T       0.78474182      -0.33169808      -0.42394171
O        3.22535783       7.98895900      19.12350078  T       0.51742193       0.33186931       0.04415870
O        1.26164210       6.64862797      17.73245370  T       0.60192122       0.20813305       0.08498166
O        3.20460196       5.27737277      18.87321369  T      -0.01136328       0.36830635      -0.12986290
O        0.28653719       5.56607309      20.05189848  T      -1.63256664       0.11538284      -1.05400471
O        1.51984872       7.73113643      21.11250778  T       0.18930337       1.08822048       0.70830514
O        4.77733907       8.45197757      21.97656965  T      -1.19604006      -0.96686411       0.37323549
O        8.02769598       0.20019601      19.36167232  T       0.42600140       0.00853400      -0.05799389
O        6.90175949       8.82516099      23.71465912  T      -0.60107180      -0.29495203      -0.82343697
O        6.21042980       5.78695421      16.89774878  T      -0.50889219       0.47884824      -0.07826231
O        5.74882732       0.25096164      18.20784060  T      -0.32914715      -0.63037884       0.26762231
O        8.68078310       6.02871786      17.91543923  T      -0.04725016       0.57810563       0.15480965
O        6.96739220       7.88536735      18.39999038  T      -0.26690457      -0.54713293      -0.12200384
O        2.12574537       4.64607305       3.83348428  T      -1.26294765       0.73579414       0.44794916
O        1.50443166       2.46365200       2.35292074  T       0.54795546       0.59185992      -2.55491190
O        3.89284202       2.68792757       4.17394923  T      -0.23725698      -0.28265958      -0.24353781
O        3.73808959       4.54922136       6.13224497  T       1.52200418       0.72053575       0.30859086
O        1.65630543       2.93188506       5.80578356  T      -0.31215691       0.33196948      -0.25912674
O        4.87869672       1.32156218       5.86079308  T       0.60544523      -0.07860180       0.76137441
O        5.20892017       0.87341611       3.19922280  T      -0.27749810       0.73064194      -0.45695419
O        6.17608623       3.60620706       4.05318047  T       0.20463859      -0.35237154       0.05104491
O        7.07764353       1.46376357       4.75094670  T      -0.13624157       1.74734971       1.07819421
O        9.10189537       2.36218478       6.34683662  T      -0.18308681      -1.48806165       0.31833619
O        9.63309414       0.52732373       4.67109847  T       0.59534278       1.23202894      -0.61090910
O        0.95621271       9.75312425       2.54332748  T       0.86519604      -0.57403194      -0.86920078
O        1.11054550       8.21909926       4.59983498  T       0.08884116      -1.28767008       0.45192315
O        9.87000000       6.98000000       2.02000000  F       0.00000000       0.00000000       0.00000000
O        5.25133546       6.08815088       4.59413573  T       1.13684746      -0.90765036       0.61270074
O        5.59000000       5.63000000       2.17000000  F       0.00000000       0.00000000       0.00000000
O        7.75514573       5.82024995       3.60801160  T      -0.53684812       0.00147215      -0.18374933
O        5.59700069       8.25705726       2.53505229  T      -0.15104619      -0.05618956      -1.09126754
O        8.61800547       8.38673561       3.58717274  T       0.81403316       0.46878657      -0.25483407
O        3.47834020       4.15782899      11.51014603  T      -0.08956869      -0.24899242       0.15041636
O        1.12777064       4.85784972      11.37845293  T      -0.26124134       0.03614309       0.31382171
O        1.73667382       0.89270840      10.34950944  T       0.46775415      -0.15609910      -0.98391143
O        2.74276045       3.12999429       9.29546229  T      -0.81214292      -0.11290387      -0.49509224
O        3.59804609       1.01604020       8.21494571  T       1.31616514       0.31777509       0.24312018
O        0.99537568       1.60935954       7.96200169  T      -0.85635443      -0.20426318       0.28551544
O        0.44041665       4.18326334       7.86869548  T       0.12574901       0.37087597      -0.34897254
O        9.25839371       1.31535374      11.33219668  T       0.55382569      -0.03745877      -0.72393100
O        5.98512973       2.54794757       7.80824395  T       0.42368483      -0.40131273       0.11044980
O        5.26159765       4.06486543       9.77007347  T      -0.23522654       0.42230061       0.89564468
O        7.40582546       2.46014124      10.03596848  T       0.65378412       0.02948745      -0.14236245
O        6.74356402       0.19833100      11.30277687  T       0.18399897       0.66945671      -0.84680773
O        7.48122191       4.81573631       8.86319786  T      -0.37154459      -0.02086571      -1.52395079
O        8.05429213       9.79920833       6.60798911  T      -0.64130038       0.52780257       0.75279632
O        4.08090338       7.06650354       6.84291890  T      -0.94755337       0.83626729       0.83477931
O        4.02579970       9.58725558      11.17665791  T       0.81871239       0.28999217      -0.68432217
O        3.05002054       8.30619268       8.84331352  T      -0.21736384      -0.42377461       0.09350399
O        1.54006944       6.58760738       7.40348202  T       0.25465897      -0.07897245      -1.89160634
O        3.31284954       5.64680567       9.07080698  T      -0.63439470       0.80625939       0.36488218
O        0.13434161       6.40175988       9.52959397  T      -0.31038068      -1.31679508      -0.53244859
O        2.28083558       7.37539898      11.13962913  T       1.08100289       0.27541269       0.36369132
O        4.93957462       7.36910912      10.30959468  T       0.33240414      -0.70753700       1.72197087
O        8.21762052       0.02870158       9.18138673  T       1.01396942       0.15731681       0.85448880
O        7.50192383       7.19045910      11.29641355  T      -0.27734368      -0.31664535      -0.40403259
O        6.21537236       5.51921133       6.86401019  T       0.28339885       0.26674666      -0.30975004
O        5.81238017       9.86698349       7.98873080  T       0.10944449      -0.09643481      -0.50158992
O        8.90435056       6.09409074       7.17964012  T       1.00542856       0.30702223       0.21443331
O        7.20638189       7.67093783       8.18569002  T      -0.71518988      -0.27429983       0.22886418
O        3.55000000       4.18000000       1.53000000  F       0.00000000       0.00000000       0.00000000
O        1.14000000       4.89000000       1.35000000  F       0.00000000       0.00000000       0.00000000
O        9.29000000       1.31000000       1.44000000  F       0.00000000       0.00000000       0.00000000
O        6.84000000       0.20000000       1.30000000  F       0.00000000       0.00000000       0.00000000
O        3.95000000       9.60000000       1.25000000  F       0.00000000       0.00000000       0.00000000
O        2.28000000       7.42000000       1.08000000  F       0.00000000       0.00000000       0.00000000
O        7.52000000       7.21000000       1.37000000  F       0.00000000       0.00000000       0.00000000
Si       2.11741272       3.95848608      12.33966426  T      -0.46605942       0.29200353       0.88555287
Si       2.91144754       3.63403804      15.03867822  T      -0.09754928       0.29702269      -0.72210637
Si       0.84294650       1.14115710      11.70027543  T      -0.93776076      -0.57005748      -0.99243553
Si       8.32810196       1.01759293      15.61530413  T       0.74035133       0.59131461       0.45742791
Si       5.52121864       2.05656714      14.43987897  T       1.72756942       1.11697592       0.50763729
Si       4.76021571       5.85421353      16.11193072  T       0.13537368      -1.47753735       0.64082721
Si       0.02129639       9.15068786      13.88355757  T      -0.04199994       0.82012293      -0.10634433
Si       6.19297399       5.17443896      13.61871466  T       0.24450878      -0.99347073      -0.16897026
Si       5.39411363       9.79148468      12.15741264  T      -1.24633543       1.85468455       1.51490057
Si       8.39413345       7.03128009      12.69734316  T      -0.02211068      -0.14152413      -0.77732079
Si       3.11729579       4.30789322      20.22024664  T       1.66185530       0.06540455       0.43960593
Si       2.10019727       1.47070326      19.06348097  T       0.00625468       0.81929183      -0.57287811
Si       0.47772448       2.68209876      16.90179252  T      -0.19434989       0.57724072      -0.99718363
Si       4.94840932       1.56396222      17.63190987  T       0.75901153      -0.40533260       0.06588550
Si       5.95909606       3.73858845      19.67904411  T      -0.00247161      -0.79584891      -0.82181992
Si       7.69271991       1.24595510      20.55570172  T       0.44447859       0.50812158      -0.81697736
Si       2.56772783       8.75202952      20.36930741  T      -0.34684633       0.27039308       0.97106797
Si       2.90864968       6.72161098      18.14936543  T      -0.63024762       0.32599712       0.48355522
Si       1.09713647       6.13487920      21.32769825  T       0.53183997      -0.29291341      -0.45818793
Si       0.15150590       5.55976004      18.38823516  T      -0.70376584      -0.04157709      -0.03522412
Si       6.10538532       9.22535448      22.47470932  T      -0.65483824       0.53755782       0.28797610
Si       7.10670872       6.26122669      18.15876084  T      -0.85704739       0.19529290       0.60525901
Si       7.17674562       9.47589450      18.16511636  T       0.25008476      -0.25556120      -0.69066050
Si       2.10000000       3.98000000       2.32000000  F       0.00000000       0.00000000       0.00000000
Si       2.91347913       3.63550758       5.03119628  T      -1.36932958      -0.18292876      -0.82441253
Si       0.89000000       1.15000000       1.77000000  F       0.00000000       0.00000000       0.00000000
Si       8.35736980       1.07492044       5.60724079  T       1.43768792       0.31796091       0.45789945
Si       5.50528333       1.98109582       4.42536264  T       1.44078545       0.16309532      -0.33664031
Si       4.80771545       5.82558665       6.12622318  T       0.32980425      -0.49703471       0.64765494
Si       0.05922155       9.12312895       3.95682711  T       0.16079251       1.19594926       0.73848124
Si       6.19132822       5.15813491       3.63670208  T       0.00150095      -1.12940789      -1.05902534
Si       5.42000000       9.77000000       2.06000000  F       0.00000000       0.00000000       0.00000000
Si       8.43058588       7.02944166       2.75527733  T       0.66562585      -0.33621395      -0.15913501
Si       3.70808058       4.27063795       9.92697181  T      -0.46270108      -0.03379045       0.04273848
Si       2.29071235       1.61277978       8.95833870  T      -1.29793719       0.53480202       0.05217494
Si       0.47515372       2.82363882       6.95941037  T       0.19211659      -0.18219223       1.05656957
Si       5.02494626       1.22816191       7.47307600  T       0.43727499       0.30681760      -0.01845240
Si       6.56506118       3.46561239       9.04947895  T       0.09920511       0.24623635       0.74565336
Si       7.93158986       0.96889825      10.47973882  T      -1.70825848      -0.98350452      -0.51578603
Si       3.54842688       8.22922796      10.42611623  T      -0.27202772      -0.43022152      -0.05606319
Si       2.96081224       6.90065192       8.02729683  T      -0.58712675      -0.34287370      -0.51028643
Si       0.92129866       6.43955402      11.01548296  T      -0.65655766      -0.76788962       0.65446950
Si       0.29616339       5.79077578       7.95519144  T       0.36912734      -0.38981797      -0.97719436
Si       5.89580161       7.05366372      11.58909527  T      -0.41944984       0.30372055       1.07799498
Si       7.42642735       6.09018711       7.77943488  T      -0.46396088       0.22157052      -0.21789800
Si       7.37273513       9.28837540       8.03721642  T       0.32486936      -0.36710280       0.39726319
Si       7.93000000       1.02000000       0.50000000  F       0.00000000       0.00000000       0.00000000
Si       0.91000000       6.44000000       0.98000000  F       0.00000000       0.00000000       0.00000000
Si       5.91000000       7.08000000       1.49000000  F       0.00000000       0.00000000       0.00000000
C        5.00595922       5.01222990      24.26081035  T       0.86909941      -0.19564645     -13.21360625
F        5.78631207       6.05857074      24.26514933  T      -0.39074056      -0.06287854     -20.80298560
F        5.79157951       3.93834380      24.26635449  T      -0.53905297       0.32325525     -20.77130479
153
Lattice="10.0 0.0 0.0 0.0 10.0 0.0 0.0 0.0 43.74" Properties=species:S:1:pos:R:3:move_mask:L:1:momenta:R:3 etch=trj_CF2_30eV_case1 idx=0 index=0 source=trj_CF2_30eV_case1/0000/OUTCAR converged=T time_fs=24.0 pbc="T T T"
O        2.20120569       4.62397744      13.86769492  T      -0.52076627       0.72193137       0.45046563
O        1.46708093       2.46229779      12.40800084  T      -0.46321012      -0.21048108      -1.69880834
O        3.85262543       2.61828821      14.25147784  T      -0.39669522      -1.11643961       0.57034632
O        3.77385661       4.55686907      16.10973210  T      -1.07993916      -0.94677835       0.18541265
O        1.70477809       2.89290930      15.87114308  T       1.34807467       0.22861554       0.01245078
O        5.05353285       1.68942720      16.04301318  T      -0.25571480       0.62791770      -1.27043850
O        5.10727807       0.90114930      13.27503489  T      -1.45429318       0.94192694       0.44656521
O        6.15377518       3.61271477      14.04918920  T      -0.07748096       0.29771876      -0.05677128
O        7.08546732       1.41689977      14.70222408  T       0.25203314       1.01661843       0.76327786
O        9.01667348       2.29437207      16.37347991  T      -0.63800574       0.51508445       1.20705142
O        9.59800569       0.41196871      14.76861954  T       0.96258254      -0.10079651       0.27709907
O        0.92007191       9.75161442      12.61968442  T       0.22314457       0.26230550      -0.45394596
O        1.11983446       8.22777502      14.63247172  T      -0.39013687      -0.56888049       0.46931930
O        9.93945087       6.95225070      12.18271003  T       1.51300540      -0.72131679       1.10318209
O        5.25437969       6.16415884      14.59694738  T       1.24567284      -0.56889575       0.58779664
O        5.65009027       5.56815064      12.15921334  T       0.07465336      -0.72094202      -0.93413247
O        7.75787100       5.82976330      13.63751140  T      -0.55878884       0.33798759      -0.13443495
O        5.58952583       8.26520283      12.62980582  T       0.02631026      -0.80324337       0.44949090
O        8.61756415       8.36871672      13.62560575  T       0.29640445      -0.27562892      -0.23601770
O        2.43155471       5.16697034      21.48776901  T       0.13666468      -0.73633676       0.05662094
O        0.20244745       6.16000012      22.75429369  T       0.30568652      -0.40662394      -0.78405556
O        1.87133235       0.17301181      20.04128959  T       0.31998669       0.52626374       0.86716484
O        2.24526797       2.93397067      19.94499727  T       0.53530040      -1.71017001      -0.10233690
O        3.44612041       1.28625525      18.21565446  T      -0.07005801       0.30250873       0.06756724
O        0.86056806       1.57763939      18.04410933  T      -0.91278433       0.78533626       0.28074686
O        0.40743172       4.07435557      17.77484016  T      -0.10128909      -0.76937542       0.29944153
O        9.09377713       1.36863443      21.43440265  T      -0.05375885       0.27533434       0.28725762
O        5.42963949       3.02711642      18.27300425  T       0.41882802       0.60658613      -0.78123985
O        4.65998349       3.93766447      20.63263702  T       0.34371792      -0.25222914       0.36898961
O        7.06838944       2.72230623      20.30151827  T      -0.13299943       0.41935830       0.91150505
O        6.43462526       0.48592933      21.45686954  T       0.46168821       0.47954442       0.62495048
O        6.61364053       5.22915235      19.38221303  T      -0.05043195       0.23335934      -0.21932189
O        7.93451768       9.80642168      16.72262735  T      -0.14895756      -0.01478201       0.82471568
O        3.83365093       6.98913218      16.85112401  T       0.07987467      -0.45084238      -0.48692349
O        3.78520276       9.40262127      21.40877915  T       0.76184807      -0.34307970      -0.45862302
O        3.22859118       7.99096971      19.12369673  T       0.53455015       0.32328252       0.02083491
O        1.26552610       6.64976251      17.73327712  T       0.66030717       0.16036285       0.18319557
O        3.20457770       5.27961067      18.87262360  T       0.00384206       0.35837093      -0.06017906
O        0.27636243       5.56678131      20.04513511  T      -1.67746445       0.11727000      -1.14170168
O        1.52105745       7.73770267      21.11684139  T       0.20261658       1.04602247       0.70410876
O        4.76953438       8.44576012      21.97874019  T      -1.34116290      -1.05615949       0.33542800
O        8.03040181       0.20031366      19.36135044  T       0.45420195       0.02934952      -0.04787989
O        6.89806051       8.82324865      23.70965891  T      -0.60170319      -0.32892950      -0.80170144
O        6.20718657       5.78984867      16.89724099  T      -0.54511891       0.46328803      -0.08498220
O        5.74674498       0.24713905      18.20944209  T      -0.34890024      -0.61406862       0.25356941
O        8.68057964       6.03225327      17.91639412  T      -0.02045951       0.57344577       0.15558108
O        6.96568645       7.88191963      18.39933736  T      -0.28875718      -0.57198591      -0.09050475
O        2.11813216       4.65009566       3.83623937  T      -1.21643774       0.57312573       0.44805096
O        1.50789390       2.46728217       2.33712371  T       0.57910233       0.58836234      -2.59003825
O        3.89130924       2.68626481       4.17244039  T      -0.26285066      -0.25800109      -0.24690358
O        3.74749749       4.55368975       6.13408516  T       1.53649274       0.72857951       0.28753339
O        1.65443384       2.93401338       5.80416739  T      -0.29875672       0.36059467      -0.26581975
O        4.88241692       1.32113609       5.86549747  T       0.60619028      -0.05914082       0.76573735
O        5.20736462       0.87791126       3.19641596  T      -0.22848150       0.73261553      -0.45744455
O        6.17734584       3.60401257       4.05335857  T       0.20538408      -0.36213867       0.00612853
O        7.07702223       1.47450742       4.75754596  T      -0.06175892       1.74968751       1.07252335
O        9.10015465       2.35296346       6.34862687  T      -0.37818367      -1.51073939       0.26832804
O        9.63656354       0.53489479       4.66728042  T       0.53500532       1.23311667      -0.63281048
O        0.96152369       9.74959660       2.53804565  T       0.86433857      -0.57441363      -0.85004595
O        1.11155767       8.21068821       4.60296837  T       0.23608981      -1.44762158       0.56576976
O        9.87000000       6.98000000       2.02000000  F       0.00000000       0.00000000       0.00000000
O        5.25835074       6.08263150       4.59779802  T       1.14776033      -0.88941280       0.57927369
O        5.59000000       5.63000000       2.17000000  F       0.00000000       0.00000000       0.00000000
O        7.75182648       5.82017316       3.60686089  T      -0.54255027      -0.02561021      -0.19166440
O        5.59604604       8.25638221       2.52865756  T      -0.16037745      -0.16261178      -0.98955184
O        8.62291247       8.38976771       3.58567265  T       0.78332537       0.51738124      -0.23435713
O        3.47799342       4.15627836      11.51127209  T      -0.02482416      -0.25624371       0.21652495
O        1.12615371       4.85813130      11.38041799  T      -0.26493611       0.05432229       0.32645557
O        1.73962367       0.89173681      10.34326077  T       0.49111151      -0.16136039      -1.04783835
O        2.73779173       3.12940920       9.29241453  T      -0.80485547      -0.07428728      -0.49680297
O        3.60610423       1.01801841       8.21645969  T       1.30170954       0.32829299       0.25313299
O        0.99010532       1.60823271       7.96371004  T      -0.85982679      -0.16304442       0.27069010
O        0.44121487       4.18539983       7.86644375  T       0.13442514       0.32197388      -0.38478812
O        9.26185879       1.31505374      11.32779046  T       0.56996026      -0.06074146      -0.71303910
O        5.98771051       2.54553306       7.80898362  T       0.41789383      -0.38315555       0.13215149
O        5.26031861       4.06738586       9.77556621  T      -0.17948542       0.39771358       0.89202986
O        7.40976866       2.46034996      10.03497171  T       0.63002625       0.03949512      -0.18243321
O        6.74466564       0.20249524      11.29761533  T       0.16832416       0.68403063      -0.82919965
O        7.47895825       4.81570118       8.85374048  T      -0.36558438       0.00789570      -1.55447606
O        8.05036872       9.80244312       6.61269649  T      -0.63483259       0.52639370       0.77781573
O        4.07504095       7.07160553       6.84803682  T      -0.95617431       0.82150952       0.82705343
O        4.03085007       9.58921945      11.17250700  T       0.82601957       0.34904114      -0.66776563
O        3.04864638       8.30364610       8.84409611  T      -0.23019734      -0.40508259       0.16175648
O        1.54161972       6.58726495       7.39137953  T       0.24822668      -0.03409913      -2.04852820
O        3.30888935       5.65167900       9.07307736  T      -0.65508746       0.77831923       0.37595715
O        0.13270049       6.39357812       9.52634708  T      -0.22294688      -1.34717442      -0.52241304
O        2.28753864       7.37714899      11.14181427  T       1.09721891       0.29144549       0.34876307
O        4.94178111       7.36450385      10.32024271  T       0.38189504      -0.79037595       1.74213774
O        8.22403423       0.02960034       9.18679847  T       1.07324028       0.13153146       0.90269351
O        7.50032435       7.18847157      11.29415586  T      -0.24186207      -0.33050661      -0.33066691
O        6.21709733       5.52088853       6.86206907  T       0.27864623       0.27968213      -0.32223336
O        5.81322384       9.86641830       7.98567903  T       0.16650892      -0.08851105      -0.49156117
O        8.91077638       6.09609524       7.18063359  T       1.08073912       0.34674505       0.10907791
O        7.20199542       7.66918003       8.18713139  T      -0.71306924      -0.29722275       0.24070622
O        3.55000000       4.18000000       1.53000000  F       0.00000000       0.00000000       0.00000000
O        1.14000000       4.89000000       1.35000000  F       0.00000000       0.00000000       0.00000000
O        9.29000000       1.31000000       1.44000000  F       0.00000000       0.00000000       0.00000000
O        6.84000000       0.20000000       1.30000000  F       0.00000000       0.00000000       0.00000000
O        3.95000000       9.60000000       1.25000000  F       0.00000000       0.00000000       0.00000000
O        2.28000000       7.42000000       1.08000000  F       0.00000000       0.00000000       0.00000000
O        7.52000000       7.21000000       1.37000000  F       0.00000000       0.00000000       0.00000000
Si       2.11558090       3.95964412      12.34285961  T      -0.58091881       0.36888409       0.94002268
Si       2.91101991       3.63519880      15.03618405  T      -0.14573590       0.36561557      -0.70488231
Si       0.83973442       1.13905482      11.69674826  T      -0.89641314      -0.63202762      -1.02684608
Si       8.33064026       1.01945459      15.61698174  T       0.71163179       0.47258562       0.50203735
Si       5.52710831       2.06044788      14.44169771  T       1.63783132       1.10200906       0.53128374
Si       4.76076891       5.84909668      16.11413446  T       0.17821423      -1.44884955       0.61780767
Si       0.02113070       9.15371180      13.88298611  T      -0.05027050       0.90584988      -0.22181364
Si       6.19393043       5.17099088      13.61842359  T       0.30111146      -0.97440569      -0.00109890
Si       5.38970093       9.79817403      12.16255678  T      -1.27393991       1.96396159       1.42455236
Si       8.39411920       7.03077438      12.69457722  T       0.01540729      -0.14814298      -0.80455553
Si       3.12302387       4.30809229      20.22181737  T       1.60953501       0.04534994       0.45586307
Si       2.10029681       1.47383016      19.06166206  T       0.04845877       0.96566873      -0.46651913
Si       0.47714425       2.68429940      16.89854666  T      -0.13431168       0.68050874      -0.85898560
Si       4.95104193       1.56261544      17.63223848  T       0.74451201      -0.36421618       0.11755687
Si       5.95910015       3.73585284      19.67590333  T       0.00585478      -0.76620702      -0.97308443
Si       7.69414140       1.24756457      20.55315647  T       0.36884681       0.41189561      -0.63694932
Si       2.56652550       8.75301708      20.37293148  T      -0.33845886       0.29576016       1.09812788
Si       2.90613729       6.72269220      18.15096002  T      -0.80308198       0.29408311       0.42604743
Si       1.09900035       6.13395052      21.32634203  T       0.53153204      -0.23793392      -0.32075294
Si       0.14918379       5.55963807      18.38799436  T      -0.62306776      -0.02901162      -0.10548176
Si       6.10335093       9.22763990      22.47556965  T      -0.51371634       0.76768526       0.19947440
Si       7.10364151       6.26182190      18.16096450  T      -0.89526532       0.14390339       0.65270088
Si       7.17766661       9.47512157      18.16243048  T       0.27583358      -0.18806646      -0.84145620
Si       2.10000000       3.98000000       2.32000000  F       0.00000000       0.00000000       0.00000000
Si       2.90855647       3.63503309       5.02827925  T      -1.44063068      -0.08552941      -0.84104235
Si       0.89000000       1.15000000       1.77000000  F       0.00000000       0.00000000       0.00000000
Si       8.36260394       1.07589369       5.60888271  T       1.54971876       0.23697355       0.47959284
Si       5.51014762       1.98174770       4.42422149  T       1.33797536       0.20968389      -0.31394508
Si       4.80878455       5.82371669       6.12843613  T       0.28054487      -0.56590509       0.61901815
Si       0.05966387       9.12768924       3.95921521  T       0.09771809       1.40715871       0.62822746
Si       6.19140428       5.15415716       3.63313257  T       0.04166160      -1.14440249      -0.98044865
Si       5.42000000       9.77000000       2.06000000  F       0.00000000       0.00000000       0.00000000
Si       8.43285237       7.02827040       2.75467102  T       0.62885442      -0.33266526      -0.18634647
Si       3.70625815       4.27061694       9.92689865  T      -0.58094606       0.02205103      -0.08466388
Si       2.28606030       1.61466511       8.95861982  T      -1.35648063       0.54014990       0.10550565
Si       0.47626365       2.82294369       6.96325887  T       0.43891880      -0.21548960       1.14130894
Si       5.02666683       1.22911376       7.47296985  T       0.54789089       0.23710415      -0.04084291
Si       6.56546024       3.46638804       9.05220867  T       0.12736469       0.19669592       0.81424734
Si       7.92543711       0.96560151      10.47796693  T      -1.80333321      -0.89735807      -0.49572587
Si       3.54728593       8.22764378      10.42583987  T      -0.37696619      -0.47507186      -0.10196939
Si       2.95905313       6.89942367       8.02567932  T      -0.42121241      -0.35866129      -0.41358565
Si       0.91899025       6.43676623      11.01760574  T      -0.65908694      -0.82408550       0.55617579
Si       0.29718776       5.78938760       7.95216227  T       0.22055457      -0.40085605      -0.75534713
Si       5.89433978       7.05481209      11.59270977  T      -0.41457773       0.34936427       0.99002045
Si       7.42473918       6.09091350       7.77885507  T      -0.49691033       0.19440776      -0.11590829
Si       7.37361945       9.28718788       8.03833304  T       0.18095122      -0.31047415       0.24446105
Si       7.93000000       1.02000000       0.50000000  F       0.00000000       0.00000000       0.00000000
Si       0.91000000       6.44000000       0.98000000  F       0.00000000       0.00000000       0.00000000
Si       5.91000000       7.08000000       1.49000000  F       0.00000000       0.00000000       0.00000000
C        5.01279772       5.01049750      24.15272496  T       0.79712955      -0.22692686     -13.21942124
F        5.78439916       6.05826591      24.15760112  T      -0.34653738      -0.05288473     -20.79955319
F        5.78884331       3.94006698      24.15896919  T      -0.51574417       0.33991401     -20.76836572
153
Lattice="10.0 0.0 0.0 0.0 10.0 0.0 0.0 0.0 43.74" Properties=species:S:1:pos:R:3:move_mask:L:1:momenta:R:3 etch=trj_CF2_30eV_case1 idx=0 index=0 source=trj_CF2_30eV_case1/0000/OUTCAR converged=T time_fs=25.0 pbc="T T T"
O        2.19811513       4.62807389      13.87039957  T      -0.48598747       0.61192328       0.42955700
O        1.46419589       2.46098372      12.39762103  T      -0.47530687      -0.21508292      -1.68087078
O        3.85021423       2.61152959      14.25486568  T      -0.38955839      -1.08260144       0.53260145
O        3.76718810       4.55091137      16.11081057  T      -1.08868929      -0.99007001       0.16691795
O        1.71303970       2.89426232      15.87108432  T       1.33761454       0.21020745      -0.02870831
O        5.05201789       1.69325402      16.03534808  T      -0.23786840       0.61736818      -1.21835728
O        5.09847994       0.90694500      13.27781399  T      -1.40977587       0.94533802       0.45823734
O        6.15328794       3.61459799      14.04876122  T      -0.08130637       0.31309413      -0.08206625
O        7.08723353       1.42312355      14.70690337  T       0.32476685       1.00959188       0.76056685
O        9.01260899       2.29762216      16.38079197  T      -0.68633757       0.54238690       1.17314663
O        9.60382312       0.41158280      14.77046719  T       0.93001290      -0.02250923       0.32705278
O        0.92127824       9.75335659      12.61693140  T       0.16934473       0.30383909      -0.44143571
O        1.11769141       8.22399186      14.63559239  T      -0.30954082      -0.66213570       0.54603906
O        9.94861346       6.94776120      12.18950650  T       1.46706572      -0.73975566       1.11218859
O        5.26205170       6.16044908      14.60052524  T       1.25203697      -0.63983797       0.57776376
O        5.65040535       5.56364429      12.15332986  T       0.02943616      -0.74720528      -0.97841775
O        7.75439753       5.83183247      13.63657288  T      -0.57110743       0.33618827      -0.17155749
O        5.58973260       8.26022449      12.63300523  T       0.04019578      -0.80981782       0.59320777
O        8.61920373       8.36706921      13.62410065  T       0.23818792      -0.26010973      -0.25425185
O        2.43241883       5.16241695      21.48786217  T       0.14434886      -0.74611534      -0.02642128
O        0.20449217       6.15745307      22.74916616  T       0.35985959      -0.42310979      -0.88548768
O        1.87327385       0.17634165      20.04653435  T       0.31254562       0.55897253       0.83984710
O        2.24866168       2.92331772      19.94424133  T       0.57264928      -1.75253441      -0.14144865
O        3.44589508       1.28809493      18.21589549  T      -0.00109267       0.29672745       0.00934439
O        0.85491611       1.58233330      18.04581527  T      -0.92645353       0.74268011       0.27528709
O        0.40669490       4.06986281      17.77673483  T      -0.13894414      -0.69033175       0.31834127
O        9.09338212       1.37036655      21.43608028  T      -0.07512054       0.28894599       0.25896893
O        5.43231787       3.03069978      18.26830181  T       0.45332265       0.55928735      -0.75095025
O        4.66206950       3.93613089      20.63503090  T       0.33721098      -0.24740490       0.41057727
O        7.06768211       2.72486572      20.30708212  T      -0.09769237       0.41417082       0.90003859
O        6.43764196       0.48871109      21.46077244  T       0.52033594       0.42655294       0.64567080
O        6.61332725       5.23058765      19.38085974  T      -0.05270698       0.23196803      -0.22021179
O        7.93355767       9.80644217      16.72775728  T      -0.16197868       0.02284356       0.84226119
O        3.83419128       6.98636006      16.84812450  T       0.09437033      -0.45242702      -0.48802339
O        3.78979558       9.40048959      21.40585652  T       0.73324116      -0.35057888      -0.49343427
O        3.23190746       7.99293024      19.12376910  T       0.54428924       0.31552725       0.00400292
O        1.26971814       6.65058669      17.73470109  T       0.70204171       0.10717744       0.28031661
O        3.20465305       5.28175006      18.87249600  T       0.02107838       0.33636745       0.02056682
O        0.26598567       5.56753289      20.03795785  T      -1.69826954       0.12946891      -1.18856818
O        1.52231824       7.74393347      21.12116096  T       0.20634237       0.97924788       0.70372164
O        4.76092764       8.43903457      21.98070607  T      -1.45669950      -1.13206882       0.30679189
O        8.03325982       0.20055175      19.36107387  T       0.47544474       0.04775285      -0.04324340
O        6.89439265       8.82111303      23.70485148  T      -0.59113495      -0.36758086      -0.76095795
O        6.20376261       5.79263535      16.89672821  T      -0.56760642       0.44374550      -0.07976668
O        5.74454687       0.24342898      18.21094916  T      -0.36669839      -0.59381640       0.23688304
O        8.68051639       6.03575820      17.91734256  T      -0.00172310       0.56821942       0.15267182
O        6.96384660       7.87838577      18.39888092  T      -0.31056108      -0.57503257      -0.05803676
O        2.11081465       4.65309721       3.83897113  T      -1.16675588       0.40351460       0.44042858
O        1.51153413       2.47085206       2.32112747  T       0.60587485       0.57210098      -2.61986810
O        3.88960628       2.68476975       4.17092867  T      -0.29269244      -0.22802878      -0.24443912
O        3.75689294       4.55810149       6.13574355  T       1.51794058       0.70215631       0.24976401
O        1.65262405       2.93630474       5.80253547  T      -0.29206931       0.38499660      -0.26420922
O        4.88613765       1.32084630       5.87014113  T       0.60559633      -0.03431054       0.74171167
O        5.20612205       0.88240140       3.19360555  T      -0.17558769       0.72907339      -0.45804816
O        6.17860498       3.60176382       4.05324734  T       0.20446744      -0.37008287      -0.04315289
O        7.07692843       1.48521934       4.76412589  T       0.03521421       1.73698833       1.07180022
O        9.09731785       2.34369027       6.35017097  T      -0.53884461      -1.50424248       0.23887010
O        9.63966683       0.54245300       4.66332815  T       0.47637233       1.22778744      -0.65468115
O        0.96682024       9.74607789       2.53290406  T       0.86045532      -0.57116852      -0.82339415
O        1.11339148       8.20137549       4.60674860  T       0.35580142      -1.58066122       0.66218827
O        9.87000000       6.98000000       2.02000000  F       0.00000000       0.00000000       0.00000000
O        5.26542167       6.07723883       4.60123914  T       1.15487259      -0.86639595       0.54086379
O        5.59000000       5.63000000       2.17000000  F       0.00000000       0.00000000       0.00000000
O        7.74850345       5.81994498       3.60565233  T      -0.53796155      -0.04775186      -0.20259806
O        5.59502650       8.25507498       2.52292431  T      -0.17225669      -0.26151100      -0.87592894
O        8.62761349       8.39307231       3.58428963  T       0.74712999       0.55749244      -0.21669308
O        3.47801950       4.15468150      11.51280432  T       0.03165580      -0.26402884       0.28239749
O        1.12452287       4.85850362      11.38246274  T      -0.26581379       0.06566426       0.33972280
O        1.74268260       0.89071650      10.33668288  T       0.50319984      -0.17210718      -1.09094279
O        2.73289259       3.12911534       9.28937072  T      -0.78972524      -0.01837345      -0.49396222
O        3.61395922       1.02008761       8.21808421  T       1.25045292       0.34727149       0.27887352
O        0.98482499       1.60735387       7.96532337  T      -0.85952012      -0.12371601       0.25474612
O        0.44206867       4.18718664       7.86396914  T       0.14382666       0.25733663      -0.42136639
O        9.26534107       1.31460336      11.32342465  T       0.55942385      -0.08638392      -0.71074011
O        5.99026991       2.54326320       7.80988309  T       0.41667911      -0.35435983       0.16240671
O        5.25941000       4.06973937       9.78101094  T      -0.11528602       0.36810581       0.88014000
O        7.41355517       2.46063567      10.03372837  T       0.60290341       0.05442691      -0.22249538
O        6.74556433       0.20669931      11.29264989  T       0.11801010       0.68247847      -0.78303367
O        7.47673569       4.81581631       8.84413543  T      -0.35814611       0.02782746      -1.57187788
O        8.04651702       9.80567621       6.61751041  T      -0.61790517       0.52717482       0.78741853
O        4.06922354       7.07654954       6.85302032  T      -0.93296752       0.78518586       0.79118057
O        4.03593723       9.59153260      11.16845833  T       0.83057036       0.40345141      -0.65120598
O        3.04719457       8.30122543       8.84530157  T      -0.24269419      -0.38284543       0.23095097
O        1.54309657       6.58717209       7.37835505  T       0.23094549       0.00215468      -2.19129246
O        3.30481130       5.65633385       9.07543556  T      -0.67283115       0.73533109       0.39335724
O        0.13161607       6.38523112       9.52320801  T      -0.12923220      -1.37058369      -0.49736634
O        2.29425379       7.37894477      11.14391868  T       1.08496205       0.29034970       0.33749573
O        4.94421501       7.35942928      10.33093758  T       0.40590525      -0.86005549       1.73676555
O        8.23077682       0.03027649       9.19241200  T       1.12097265       0.08484590       0.92019553
O        7.49897203       7.18640406      11.29235967  T      -0.19698727      -0.34265200      -0.25395645
O        6.21879506       5.52264636       6.86005702  T       0.27450238       0.29302085      -0.33285225
O        5.81443458       9.86588837       7.98270478  T       0.22867971      -0.08489262      -0.47636193
O        8.91754667       6.09835650       7.18097915  T       1.11733119       0.39064617       0.00353208
O        7.19763268       7.66730028       8.18864602  T      -0.70747930      -0.31385229       0.25272538
O        3.55000000       4.18000000       1.53000000  F       0.00000000       0.00000000       0.00000000
O        1.14000000       4.89000000       1.35000000  F       0.00000000       0.00000000       0.00000000
O        9.29000000       1.31000000       1.44000000  F       0.00000000       0.00000000       0.00000000
O        6.84000000       0.20000000       1.30000000  F       0.00000000       0.00000000       0.00000000
O        3.95000000       9.60000000       1.25000000  F       0.00000000       0.00000000       0.00000000
O        2.28000000       7.42000000       1.08000000  F       0.00000000       0.00000000       0.00000000
O        7.52000000       7.21000000       1.37000000  F       0.00000000       0.00000000       0.00000000
Si       2.11335342       3.96105780      12.34622921  T      -0.69192214       0.43789187       0.98490721
Si       2.91043596       3.63658809      15.03374284  T      -0.18676688       0.42742746      -0.69198910
Si       0.83669118       1.13673716      11.69307949  T      -0.84129002      -0.69299989      -1.07329491
Si       8.33308296       1.02089613      15.61881705  T       0.68579432       0.35154526       0.54772535
Si       5.53266125       2.06427492      14.44358857  T       1.53530579       1.08634236       0.54879551
Si       4.76144546       5.84407629      16.11624332  T       0.20566017      -1.42250173       0.58661056
Si       0.02095946       9.15700430      13.88199975  T      -0.04510307       0.97336024      -0.34297889
Si       6.19507222       5.16764604      13.61868355  T       0.35038028      -0.93430479       0.14538770
Si       5.38521989       9.80518326      12.16736557  T      -1.28561024       2.03737668       1.32343709
Si       8.39424899       7.03024096      12.69171491  T       0.06002783      -0.15738587      -0.83215321
Si       3.12853076       4.30819316      20.22341936  T       1.53556728       0.00949684       0.45745999
Si       2.10052345       1.47743831      19.06022023  T       0.07899034       1.09395953      -0.35784438
Si       0.47680198       2.68685423      16.89578253  T      -0.05875796       0.77950139      -0.72206746
Si       4.95360630       1.56141762      17.63270643  T       0.72008367      -0.32027394       0.14571020
Si       5.95914342       3.73324159      19.67224531  T       0.02003708      -0.72492127      -1.11714486
Si       7.69530322       1.24883499      20.55125397  T       0.29616916       0.31446901      -0.44988596
Si       2.56537338       8.75410668      20.37696894  T      -0.31814369       0.32873171       1.20705600
Si       2.90305337       6.72367875      18.15233340  T      -0.95649687       0.27189790       0.35737478
Si       1.10083992       6.13321538      21.32543366  T       0.51789465      -0.18246984      -0.20243250
Si       0.14715272       5.55955263      18.38748035  T      -0.53765380      -0.02053117      -0.19124227
Si       6.10176002       9.23071244      22.47607936  T      -0.40167127       0.98686224       0.08792163
Si       7.10045658       6.26222694      18.16331320  T      -0.92414886       0.08671453       0.68801828
Si       7.17867009       9.47456882      18.15925428  T       0.29702722      -0.12985048      -0.97041204
Si       2.10000000       3.98000000       2.32000000  F       0.00000000       0.00000000       0.00000000
Si       2.90343116       3.63492458       5.02532720  T      -1.48524226       0.02583078      -0.84487384
Si       0.89000000       1.15000000       1.77000000  F       0.00000000       0.00000000       0.00000000
Si       8.36817537       1.07656856       5.61058691  T       1.63007660       0.14729645       0.49341389
Si       5.51462693       1.98256232       4.42317757  T       1.22100049       0.25605560      -0.28122187
Si       4.80967370       5.82166557       6.13055955  T       0.22749356      -0.60059121       0.59617054
Si       0.05993933       9.13294227       3.96122870  T       0.06588139       1.59123790       0.52447994
Si       6.19161745       5.15013478       3.62985306  T       0.07982557      -1.15487649      -0.89346568
Si       5.42000000       9.77000000       2.06000000  F       0.00000000       0.00000000       0.00000000
Si       8.43497547       7.02711982       2.75398114  T       0.58364327      -0.32440914      -0.20688924
Si       3.70401029       4.27079320       9.92638122  T      -0.70519296       0.07880467      -0.21057495
Si       2.28125773       1.61654066       8.95905850  T      -1.38401498       0.52955625       0.14219427
Si       0.47819892       2.82212988       6.96737523  T       0.66289178      -0.25022652       1.20908174
Si       5.02878543       1.22981896       7.47279886  T       0.66460856       0.16602074      -0.05541295
Si       6.56594267       3.46698541       9.05516773  T       0.14690815       0.14454447       0.87656157
Si       7.91901602       0.96264632      10.47628025  T      -1.86148104      -0.78831924      -0.46743466
Si       3.54581187       8.22590905      10.42540405  T      -0.46192941      -0.51606837      -0.14687382
Si       2.95784910       6.89814761       8.02440906  T      -0.27061320      -0.37032254      -0.31209151
Si       0.91671333       6.43380255      11.01935578  T      -0.63881270      -0.86840654       0.44179156
Si       0.29773114       5.78799036       7.94990375  T       0.09476835      -0.39495739      -0.53720953
Si       5.89291360       7.05608559      11.59602901  T      -0.39877256       0.37498679       0.90988804
Si       7.42297805       6.09155086       7.77861000  T      -0.50559080       0.17078747      -0.02680382
Si       7.37400318       9.28621160       8.03894637  T       0.03913452      -0.24658333       0.10987111
Si       7.93000000       1.02000000       0.50000000  F       0.00000000       0.00000000       0.00000000
Si       0.91000000       6.44000000       0.98000000  F       0.00000000       0.00000000       0.00000000
Si       5.91000000       7.08000000       1.49000000  F       0.00000000       0.00000000       0.00000000
C        5.01891221       5.00853542      24.04458157  T       0.69218038      -0.25141509     -13.22852730
F        5.78274968       6.05804102      24.05007026  T      -0.28935103      -0.03231980     -20.79630589
F        5.78627755       3.94182829      24.05159755  T      -0.47317326       0.33779933     -20.76581095
153
Lattice="10.0 0.0 0.0 0.0 10.0 0.0 0.0 0.0 43.74" Properties=species:S:1:pos:R:3:move_mask:L:1:momenta:R:3 etch=trj_CF2_30eV_case1 idx=0 index=0 source=trj_CF2_30eV_case1/0000/OUTCAR converged=T time_fs=26.0 pbc="T T T"
O        2.19523757       4.63148688      13.87295941  T      -0.45152815       0.49959715       0.40338919
O        1.46125770       2.45968204      12.38737710  T      -0.48057208      -0.20653453      -1.65464616
O        3.84783364       2.60502153      14.25801147  T      -0.38676165      -1.03484495       0.49159414
O        3.76052667       4.54475270      16.11179272  T      -1.07754176      -1.01211197       0.15415290
O        1.72114563       2.89547081      15.87082054  T       1.29737716       0.18157174      -0.05427929
O        5.05061146       1.69699471      16.02813327  T      -0.22031745       0.59992890      -1.12438961
O        5.08998720       0.91274988      13.28065637  T      -1.35486221       0.94490983       0.46715521
O        6.15277612       3.61653090      14.04818796  T      -0.08548971       0.31369798      -0.10400109
O        7.08946783       1.42928468      14.71155795  T       0.40408062       0.99631649       0.75512824
O        9.00824488       2.30101958      16.38786846  T      -0.73515853       0.56316971       1.13055779
O        9.60940226       0.41171397      14.77265642  T       0.88537630       0.06703357       0.38790393
O        0.92214724       9.75533110      12.61427792  T       0.11342553       0.33797847      -0.42166417
O        1.11601532       8.21966062      14.63916262  T      -0.23843676      -0.74704197       0.61548228
O        9.95742002       6.94318105      12.19637905  T       1.39762206      -0.75095775       1.12758637
O        5.26973789       6.15630044      14.60404283  T       1.25020745      -0.71168701       0.56825285
O        5.65046742       5.55897454      12.14724145  T      -0.00761414      -0.77400969      -1.00072510
O        7.75087516       5.83389284      13.63540243  T      -0.57464300       0.33513501      -0.20992683
O        5.59001078       8.25534551      12.63709344  T       0.04959725      -0.77137668       0.73875537
O        8.62049507       8.36553300      13.62248427  T       0.18318594      -0.23927663      -0.27221993
O        2.43332097       5.15781750      21.48744295  T       0.14878827      -0.75130482      -0.11030486
O        0.20685983       6.15480449      22.74343033  T       0.41069996      -0.43970139      -0.98187511
O        1.87517116       0.17987979      20.05158745  T       0.30563369       0.59390909       0.80485702
O        2.25232364       2.91252886      19.94328678  T       0.62250558      -1.75438246      -0.16682257
O        3.44612670       1.28989853      18.21575458  T       0.07812189       0.29080099      -0.05648552
O        0.84921231       1.58674868      18.04749326  T      -0.92954989       0.69472417       0.27171841
O        0.40572420       4.06591597      17.77875411  T      -0.17732682      -0.59198699       0.33983788
O        9.09285315       1.37218276      21.43758030  T      -0.09729458       0.30272327       0.22950126
O        5.43520214       3.03397008      18.26377920  T       0.48586360       0.50474199      -0.72276530
O        4.66413847       3.93462490      20.63767159  T       0.33818531      -0.24341130       0.44866024
O        7.06718637       2.72738951      20.31256059  T      -0.06419839       0.40774061       0.88368462
O        6.44100714       0.49116760      21.46478914  T       0.57512994       0.37386089       0.66186847
O        6.61298221       5.23197793      19.37952263  T      -0.06076535       0.21871554      -0.21401949
O        7.93254762       9.80671576      16.73292643  T      -0.16515485       0.06754262       0.83732912
O        3.83479140       6.98357423      16.84515327  T       0.09933438      -0.45533491      -0.47779807
O        3.79419596       9.39832424      21.40272065  T       0.69924315      -0.35402945      -0.52800781
O        3.23525903       7.99484568      19.12375903  T       0.54592945       0.30858037      -0.00598560
O        1.27411236       6.65106970      17.73671403  T       0.72595348       0.04937817       0.37476140
O        3.20484015       5.28371993      18.87289452  T       0.04019532       0.30342220       0.11086570
O        0.25555555       5.56839007      20.03061990  T      -1.69492913       0.15155625      -1.19413297
O        1.52357398       7.74968360      21.12548949  T       0.20112893       0.88988686       0.70697128
O        4.75170897       8.43188775      21.98252664  T      -1.54019083      -1.19316824       0.28819375
O        8.03622534       0.20089538      19.36080912  T       0.48912823       0.06374546      -0.04397912
O        6.89082059       8.81872747      23.70034713  T      -0.57085012      -0.41018144      -0.70351881
O        6.20024441       5.79528989      16.89628518  T      -0.57575911       0.42024954      -0.06224109
O        5.74224766       0.23985408      18.21234596  T      -0.38167474      -0.57013440       0.21766938
O        8.68054187       6.03922980      17.91826139  T       0.00837107       0.56262010       0.14590972
O        6.96187344       7.87490140      18.39862582  T      -0.33215441      -0.55588056      -0.02499467
O        2.10381007       4.65504063       3.84163347  T      -1.11464395       0.22877855       0.42551454
O        1.51532468       2.47428175       2.30496351  T       0.62804985       0.54266727      -2.64473437
O        3.88770722       2.68347489       4.16945027  T      -0.32670028      -0.19281131      -0.23605221
O        3.76607365       4.56224705       6.13712423  T       1.46667626       0.64211719       0.19750479
O        1.65083449       2.93873201       5.80093926  T      -0.29214050       0.40481865      -0.25420200
O        4.88985036       1.32072381       5.87455274  T       0.60356381      -0.00478192       0.69046145
O        5.20521553       0.88685381       3.19079218  T      -0.11906069       0.72041043      -0.45830746
O        6.17985318       3.59947129       4.05282095  T       0.20180892      -0.37646362      -0.09646545
O        7.07749276       1.49580815       4.77071475  T       0.15201788       1.70971907       1.07523372
O        9.09361537       2.33455500       6.35160579  T      -0.65933224      -1.46531037       0.23322969
O        9.64241901       0.54995833       4.65924116  T       0.42087206       1.21588663      -0.67672535
O        0.97208320       9.74258978       2.52795045  T       0.85337202      -0.56445762      -0.78874699
O        1.11586855       8.19133660       4.61106265  T       0.44533868      -1.68377855       0.73946212
O        9.87000000       6.98000000       2.02000000  F       0.00000000       0.00000000       0.00000000
O        5.27252320       6.07200179       4.60443210  T       1.15761526      -0.83874789       0.49867563
O        5.59000000       5.63000000       2.17000000  F       0.00000000       0.00000000       0.00000000
O        7.74524145       5.81959697       3.60436746  T      -0.52261045      -0.06460539      -0.21649988
O        5.59392531       8.25319153       2.51792322  T      -0.18703208      -0.34976626      -0.75120725
O        8.63207812       8.39659653       3.58300662  T       0.70653005       0.58890965      -0.20175023
O        3.47836415       4.15303558      11.51473584  T       0.07877956      -0.27219438       0.34626353
O        1.12289461       4.85892430      11.38459001  T      -0.26416062       0.07008619       0.35326187
O        1.74578032       0.88961160      10.32990659  T       0.50372149      -0.18904049      -1.11235558
O        2.72810686       3.12921275       9.28635612  T      -0.76820513       0.05271417      -0.48746788
O        3.62139419       1.02229714       8.21991093  T       1.16562583       0.37381982       0.31861509
O        0.97955937       1.60670747       7.96683803  T      -0.85492500      -0.08757963       0.23877147
O        0.44298195       4.18853416       7.86127056  T       0.15375437       0.17942460      -0.45751208
O        9.26867786       1.31398919      11.31904737  T       0.52277884      -0.11402022      -0.71666543
O        5.99283509       2.54120017       7.81099292  T       0.41968515      -0.31601706       0.20051819
O        5.25891138       4.07189824       9.78635920  T      -0.04672580       0.33451542       0.86076778
O        7.41716705       2.46102612      10.03224160  T       0.57331007       0.07344030      -0.26154193
O        6.74605061       0.21084558      11.28805314  T       0.03434658       0.66536853      -0.70939585
O        7.47456348       4.81602351       8.83446605  T      -0.34916380       0.03767085      -1.57528431
O        8.04280161       9.80891960       6.62233525  T      -0.59044432       0.52963162       0.78137092
O        4.06364416       7.08120994       6.85770067  T      -0.87892282       0.72960108       0.72867926
O        4.04104206       9.59416143      11.16450884  T       0.83162588       0.45158664      -0.63564190
O        3.04566655       8.29895083       8.84693056  T      -0.25506544      -0.35762102       0.29939206
O        1.54443749       6.58727354       7.36450592  T       0.20428644       0.02911991      -2.31657561
O        3.30063269       5.66068227       9.07791802  T      -0.68790567       0.67882636       0.41625487
O        0.13112366       6.37676225       9.52026801  T      -0.03029322      -1.38684256      -0.45765677
O        2.30080733       7.38068203      11.14596636  T       1.04473784       0.27249176       0.33035541
O        4.94671130       7.35397150      10.34151547  T       0.40182924      -0.91496410       1.70368685
O        8.23777560       0.03060348       9.19803982  T       1.15661757       0.01803028       0.90760619
O        7.49792155       7.18426790      11.29104116  T      -0.14376793      -0.35282217      -0.17533559
O        6.22046883       5.52448741       6.85798550  T       0.27079877       0.30679975      -0.34161115
O        5.81603784       9.86536841       7.97983935  T       0.29397466      -0.08516263      -0.45615023
O        8.92442049       6.10089972       7.18067818  T       1.11452086       0.43854556      -0.10137945
O        7.19331460       7.66533987       8.19023493  T      -0.69854809      -0.32335888       0.26489708
O        3.55000000       4.18000000       1.53000000  F       0.00000000       0.00000000       0.00000000
O        1.14000000       4.89000000       1.35000000  F       0.00000000       0.00000000       0.00000000
O        9.29000000       1.31000000       1.44000000  F       0.00000000       0.00000000       0.00000000
O        6.84000000       0.20000000       1.30000000  F       0.00000000       0.00000000       0.00000000
O        3.95000000       9.60000000       1.25000000  F       0.00000000       0.00000000       0.00000000
O        2.28000000       7.42000000       1.08000000  F       0.00000000       0.00000000       0.00000000
O        7.52000000       7.21000000       1.37000000  F       0.00000000       0.00000000       0.00000000
Si       2.11074736       3.96269692      12.34973698  T      -0.79704278       0.49753939       1.01879444
Si       2.90972210       3.63817969      15.03133809  T      -0.21992807       0.48105784      -0.68411499
Si       0.83386403       1.13420979      11.68922832  T      -0.77299981      -0.75169685      -1.13094902
Si       8.33544110       1.02191389      15.62081492  T       0.66335885       0.23072165       0.59510993
Si       5.53783555       2.06804636      14.44552953  T       1.42163741       1.07023811       0.55992270
Si       4.76218957       5.83914323      16.11822926  T       0.21672572      -1.39895665       0.54763219
Si       0.02082995       9.16049905      13.88058460  T      -0.02647626       1.02134517      -0.46631401
Si       6.19637279       5.16447877      13.61941350  T       0.39185730      -0.87289922       0.26715121
Si       5.38072414       9.81238584      12.17180435  T      -1.28262894       2.07464115       1.21332875
Si       8.39454548       7.02967055      12.68875761  T       0.11049785      -0.16929204      -0.85856681
Si       3.13374306       4.30814314      20.22500133  T       1.44145150      -0.04060185       0.44448525
Si       2.10083727       1.48145962      19.05915784  T       0.09849715       1.20143573      -0.25018591
Si       0.47674694       2.68974565      16.89349253  T       0.02929446       0.87269348      -0.58813459
Si       4.95606870       1.56037747      17.63323340  T       0.68633959      -0.27419015       0.15163676
Si       5.95924711       3.73079355      19.66809935  T       0.04040672      -0.67310430      -1.25166021
Si       7.69621721       1.24976430      20.55001448  T       0.22724115       0.21706565      -0.25830635
Si       2.56431273       8.75532463      20.38135296  T      -0.28628863       0.36907880       1.29601362
Si       2.89947109       6.72460462      18.15344988  T      -1.08753069       0.25930489       0.27960158
Si       1.10260871       6.13267341      21.32490350  T       0.49122391      -0.12768902      -0.10469009
Si       0.14542617       5.55949099      18.38664125  T      -0.44926611      -0.01520965      -0.29103139
Si       6.10050795       9.23452638      22.47616302  T      -0.32000411       1.19085164      -0.04335754
Si       7.09718841       6.26242324      18.16576315  T      -0.94269854       0.02475580       0.71052676
Si       7.17973791       9.47420221      18.15566975  T       0.31237130      -0.08172970      -1.07442817
Si       2.10000000       3.98000000       2.32000000  F       0.00000000       0.00000000       0.00000000
Si       2.89819590       3.63522585       5.02238092  T      -1.50365835       0.14822748      -0.83814146
Si       0.89000000       1.15000000       1.77000000  F       0.00000000       0.00000000       0.00000000
Si       8.37396946       1.07691435       5.61232506  T       1.67679695       0.04877980       0.49895130
Si       5.51867538       1.98353795       4.42226416  T       1.09204574       0.30164770      -0.23952734
Si       4.81037529       5.81955253       6.13261078  T       0.17391038      -0.60150340       0.57738446
Si       0.06016070       9.13878613       3.96289179  T       0.06689106       1.74446885       0.42787569
Si       6.19196005       5.14608407       3.62689029  T       0.11561310      -1.16054750      -0.79963836
Si       5.42000000       9.77000000       2.06000000  F       0.00000000       0.00000000       0.00000000
Si       8.43692590       7.02600626       2.75323120  T       0.53017515      -0.31149417      -0.22070045
Si       3.70132353       4.27116790       9.92543161  T      -0.83108781       0.13529962      -0.33106532
Si       2.27641257       1.61835425       8.95959607  T      -1.38101016       0.50518003       0.16206839
Si       0.48086961       2.82119107       6.97169432  T       0.85862415      -0.28704379       1.25671402
Si       5.03132056       1.23027499       7.47259139  T       0.78571002       0.09486053      -0.06162723
Si       6.56647870       3.46739784       9.05833199  T       0.15808316       0.09122223       0.93137560
Si       7.91245711       0.96011095      10.47470381  T      -1.88216003      -0.65762976      -0.43313791
Si       3.54407953       8.22403955      10.42481577  T      -0.52425350      -0.55188778      -0.18877695
Si       2.95713863       6.89683716       8.02349917  T      -0.13970814      -0.37842742      -0.20793801
Si       0.91454473       6.43070494      11.02068155  T      -0.59756328      -0.90066043       0.31415923
Si       0.29787885       5.78664311       7.94839639  T      -0.00529866      -0.37242326      -0.32649376
Si       5.89156385       7.05741205      11.59908728  T      -0.37066013       0.37956096       0.84151293
Si       7.42122902       6.09211277       7.77865191  T      -0.49012544       0.15138905       0.04797949
Si       7.37389842       9.28546910       8.03912338  T      -0.09791192      -0.17715382      -0.00481127
Si       7.93000000       1.02000000       0.50000000  F       0.00000000       0.00000000       0.00000000
Si       0.91000000       6.44000000       0.98000000  F       0.00000000       0.00000000       0.00000000
Si       5.91000000       7.08000000       1.49000000  F       0.00000000       0.00000000       0.00000000
C        5.02404357       5.00640986      23.93635143  T       0.55772195      -0.26634889     -13.23986509
F        5.78142360       6.05794505      23.94255528  T      -0.22197718      -0.00353926     -20.79346179
F        5.78398076       3.94352894      23.94424049  T      -0.41190238       0.31653227     -20.76261425
153
Lattice="10.0 0.0 0.0 0.0 10.0 0.0 0.0 0.0 43.74" Properties=species:S:1:pos:R:3:move_mask:L:1:momenta:R:3 etch=trj_CF2_30eV_case1 idx=0 index=0 source=trj_CF2_30eV_case1/0000/OUTCAR converged=T time_fs=27.0 pbc="T T T"
O        2.19256871       4.63420718      13.87534387  T      -0.41813579       0.38657708       0.37255044
O        1.45830720       2.45847149      12.37731817  T      -0.47942756      -0.18558898      -1.62073271
O        3.84545666       2.59884866      14.26089676  T      -0.38837045      -0.97351016       0.44783439
O        3.75399535       4.53852497      16.11271539  T      -1.04633678      -1.01257379       0.14761083
O        1.72891439       2.89647295      15.87044762  T       1.22800229       0.14309701      -0.06434269
O        5.04931252       1.70060832      16.02161417  T      -0.20279210       0.57608068      -0.99261240
O        5.08186271       0.91854015      13.28354465  T      -1.28988820       0.94055362       0.47315505
O        6.15223754       3.61842009      14.04749145  T      -0.09001413       0.29878002      -0.12215790
O        7.09220311       1.43534672      14.71616938  T       0.48745806       0.97744863       0.74639815
O        9.00358579       2.30452612      16.39466029  T      -0.78193199       0.57808425       1.08070258
O        9.61467631       0.41242063      14.77524588  T       0.83112594       0.16422441       0.45684924
O        0.92266872       9.75749251      12.61176604  T       0.05631376       0.36474741      -0.39548753
O        1.11474161       8.21483837      14.64313339  T      -0.17877952      -0.82177703       0.67629281
O        9.96573663       6.93855255      12.20336014  T       1.30817192      -0.75567595       1.14705877
O        5.27738666       6.15171033      14.60750472  T       1.23977803      -0.78345717       0.55969401
O        5.65032874       5.55414097      12.14108489  T      -0.03587899      -0.80036521      -1.00061648
O        7.74735883       5.83594916      13.63399342  T      -0.56910441       0.33487289      -0.24920254
O        5.59033348       8.25083207      12.64207690  T       0.05477498      -0.69160981       0.88448809
O        8.62146134       8.36414218      13.62075900  T       0.13247443      -0.21267406      -0.28968301
O        2.43423643       5.15320077      21.48650553  T       0.14834599      -0.75170216      -0.19531191
O        0.20952678       6.15205364      22.73712285  T       0.45714576      -0.45643307      -1.07134034
O        1.87702819       0.18363639      20.05640400  T       0.29946356       0.62991046       0.76294239
O        2.25632734       2.90185306      19.94222116  T       0.68372516      -1.71579512      -0.17747562
O        3.44686658       1.29166595      18.21519129  T       0.16369063       0.28499681      -0.12783066
O        0.84352340       1.59085510      18.04915599  T      -0.92152510       0.64218189       0.27036766
O        0.40451769       4.06262575      17.78091066  T      -0.21560384      -0.47696606       0.36284705
O        9.09218694       1.37408402      21.43889714  T      -0.11971874       0.31665176       0.19939925
O        5.43827983       3.03688507      18.25942174  T       0.51631057       0.44368161      -0.69726107
O        4.66623679       3.93313942      20.64052875  T       0.34678526      -0.24075904       0.48087207
O        7.06688921       2.72987006      20.31792362  T      -0.03309446       0.40007174       0.86243979
O        6.44469599       0.49330520      21.46888937  T       0.62572122       0.32295358       0.67272327
O        6.61257038       5.23325118      19.37824544  T      -0.07440289       0.19395585      -0.20071040
O        7.93154949       9.80728368      16.73799461  T      -0.15803678       0.11856270       0.80931032
O        3.83539289       6.98076615      16.84227806  T       0.09485698      -0.45969478      -0.45689673
O        3.79837243       9.39615033      21.39937444  T       0.66043266      -0.35335800      -0.56184729
O        3.23859438       7.99672060      19.12370879  T       0.53891087       0.30228983      -0.00911846
O        1.27859598       6.65118579      17.73929468  T       0.73098320      -0.01218614       0.46496130
O        3.20514955       5.28545810      18.87387165  T       0.06083939       0.26126557       0.20861166
O        0.24521814       5.56941141      20.02337180  T      -1.66829889       0.18277581      -1.15969327
O        1.52477277       7.75482232      21.12984808  T       0.18802776       0.78064279       0.71340253
O        4.74207874       8.42441375      21.98426450  T      -1.59074090      -1.23851705       0.27981599
O        8.03925060       0.20133020      19.36052429  T       0.49484885       0.07750747      -0.04968378
O        6.88739746       8.81607082      23.69623832  T      -0.54310768      -0.45564857      -0.63286054
O        6.19672035       5.79778815      16.89598734  T      -0.56956918       0.39284356      -0.03253993
O        5.73986729       0.23643378      18.21361730  T      -0.39297886      -0.54355262       0.19603257
O        8.68060224       6.04266621      17.91912664  T       0.00964893       0.55677274       0.13520605
O        6.95976875       7.87160161      18.39857433  T      -0.35337591      -0.51509841       0.00821748
O        2.09713097       4.65590017       3.84418289  T      -1.06087544       0.05079017       0.40371973
O        1.51923727       2.47749051       2.28866133  T       0.64566549       0.50021114      -2.66495127
O        3.88558722       2.68241183       4.16804129  T      -0.36458735      -0.15257856      -0.22187004
O        3.77484189       4.56592504       6.13814547  T       1.38387974       0.55027568       0.13312242
O        1.64902447       2.94126639       5.79942983  T      -0.29863221       0.41986697      -0.23600836
O        4.89354597       1.32079508       5.87857128  T       0.60001082       0.02865302       0.61417319
O        5.20466659       0.89123860       3.18797963  T      -0.05914924       0.70715584      -0.45767321
O        6.18107956       3.59714342       4.05205588  T       0.19735214      -0.38167745      -0.15339918
O        7.07882596       1.50618703       4.77733446  T       0.28487938       1.66882496       1.08158352
O        9.08930549       2.32576364       6.35308452  T      -0.73630997      -1.39198306       0.25343301
O        9.64484304       0.55737065       4.65501807  T       0.36966743       1.19753582      -0.69901554
O        0.97729257       9.73915349       2.52323462  T       0.84298763      -0.55427576      -0.74593452
O        1.11880056       8.18076013       4.61579080  T       0.50403720      -1.75568809       0.79709848
O        9.87000000       6.98000000       2.02000000  F       0.00000000       0.00000000       0.00000000
O        5.27962665       6.06694828       4.60735773  T       1.15538446      -0.80664449       0.45403513
O        5.59000000       5.63000000       2.17000000  F       0.00000000       0.00000000       0.00000000
O        7.74210721       5.81916199       3.60298853  T      -0.49634557      -0.07609819      -0.23319159
O        5.59272383       8.25080584       2.51371963  T      -0.20496875      -0.42465433      -0.61632919
O        8.63628279       8.40028699       3.58180743  T       0.66265897       0.61167429      -0.18934706
O        3.47896742       4.15133889      11.51704889  T       0.11579329      -0.28051806       0.40635959
O        1.12128330       4.85935127      11.38680019  T      -0.26037820       0.06777234       0.36663951
O        1.74884564       0.88838225      10.32306639  T       0.49267512      -0.21273916      -1.11175663
O        2.72346879       3.12978659       9.28339014  T      -0.74195064       0.13627488      -0.47831293
O        3.62821636       1.02469026       8.22201886  T       1.05179117       0.40686477       0.36997559
O        0.97433672       1.60626971       7.96825768  T      -0.84539262      -0.05600858       0.22405357
O        0.44395714       4.18937078       7.85835466  T       0.16393752       0.09162330      -0.49189911
O        9.27171336       1.31320024      11.31461033  T       0.46168723      -0.14324626      -0.73002093
O        5.99543021       2.53939832       7.81235850  T       0.42629475      -0.26958649       0.24550840
O        5.25883631       4.07384140       9.79156782  T       0.02186866       0.29804735       0.83482880
O        7.42059199       2.46154332      10.03052080  T       0.54218767       0.09550910      -0.29853646
O        6.74592703       0.21484195      11.28398783  T      -0.08003443       0.63395065      -0.61041653
O        7.47245140       4.81625748       8.82482048  T      -0.33853963       0.03637702      -1.56401083
O        8.03928679       9.81218152       6.62707532  T      -0.55261499       0.53306458       0.75989192
O        4.05848636       7.08547664       6.86192146  T      -0.79612904       0.65746074       0.64202167
O        4.04614061       9.59706283      11.16064950  T       0.82836906       0.49198425      -0.62200246
O        3.04406234       8.29683858       8.84897288  T      -0.26756622      -0.33009648       0.36523906
O        1.54559102       6.58751149       7.34994870  T       0.17034116       0.04663166      -2.42144766
O        3.29636883       5.66464698       9.08055530  T      -0.70067927       0.61072959       0.44356634
O        0.13125202       6.36821586       9.51761530  T       0.07277787      -1.39582233      -0.40392939
O        2.30703086       7.38226010      11.14798360  T       0.97774482       0.23868062       0.32760593
O        4.94909230       7.34822458      10.35180150  T       0.36818722      -0.95412468       1.64152115
O        8.24495527       0.03046259       9.20350283  T       1.17985548      -0.06714754       0.86703645
O        7.49722002       7.18207594      11.29020750  T      -0.08360972      -0.36078720      -0.09629924
O        6.22212065       5.52641450       6.85586587  T       0.26730875       0.32105137      -0.34852853
O        5.81804595       9.86483646       7.97711278  T       0.36010220      -0.08864953      -0.43118053
O        8.93115865       6.10374841       7.17973714  T       1.07354221       0.49006068      -0.20480199
O        7.18906119       7.66334465       8.19189896  T      -0.68644853      -0.32508661       0.27719293
O        3.55000000       4.18000000       1.53000000  F       0.00000000       0.00000000       0.00000000
O        1.14000000       4.89000000       1.35000000  F       0.00000000       0.00000000       0.00000000
O        9.29000000       1.31000000       1.44000000  F       0.00000000       0.00000000       0.00000000
O        6.84000000       0.20000000       1.30000000  F       0.00000000       0.00000000       0.00000000
O        3.95000000       9.60000000       1.25000000  F       0.00000000       0.00000000       0.00000000
O        2.28000000       7.42000000       1.08000000  F       0.00000000       0.00000000       0.00000000
O        7.52000000       7.21000000       1.37000000  F       0.00000000       0.00000000       0.00000000
Si       2.10778661       3.96452648      12.35334231  T      -0.89441491       0.54658304       1.04049126
Si       2.90890652       3.63994279      15.02895172  T      -0.24491597       0.52527986      -0.68147729
Si       0.83129735       1.13148311      11.68515760  T      -0.69257743      -0.80668304      -1.19859188
Si       8.33772722       1.02251295      15.62298234  T       0.64464893       0.11256969       0.64478828
Si       5.54259537       2.07176068      14.44749835  T       1.29863901       1.05363894       0.56479345
Si       4.76294318       5.83428747      16.12006630  T       0.21110123      -1.37828263       0.50162625
Si       0.02078822       9.16412686      13.87873970  T       0.00489636       1.04948839      -0.58798736
Si       6.19780468       5.16156278      13.62052289  T       0.42550502      -0.79081435       0.36208985
Si       5.37626218       9.81965727      12.17584517  T      -1.26661998       2.07713867       1.09626794
Si       8.39502700       7.02905399      12.68571241  T       0.16562188      -0.18373422      -0.88208427
Si       3.13859441       4.30789565      20.22651337  T       1.32973953      -0.10304560       0.41766695
Si       2.10120175       1.48581684      19.05846522  T       0.10824798       1.28560528      -0.14707353
Si       0.47701641       2.69295070      16.89166388  T       0.12603438       0.95856618      -0.45845330
Si       4.95839805       1.55950120      17.63374511  T       0.64420369      -0.22670654       0.13743870
Si       5.95943244       3.72854327      19.66350305  T       0.06659912      -0.61211820      -1.37422074
Si       7.69689746       1.25035471      20.54944909  T       0.16259692       0.12089712      -0.06493141
Si       2.56338232       8.75669579      20.38601133  T      -0.24391255       0.41619096       1.36377241
Si       2.89547359       6.72550237      18.15428217  T      -1.19344288       0.25565234       0.19541244
Si       1.10426320       6.13232019      21.32467787  T       0.45285145      -0.07474581      -0.02841729
Si       0.14401137       5.55944404      18.38543166  T      -0.35973427      -0.01189801      -0.40262399
Si       6.09948904       9.23902128      22.47576004  T      -0.26804766       1.37551142      -0.18924760
Si       7.09387457       6.26239636      18.16826912  T      -0.95014998      -0.04061374       0.72006443
Si       7.18084731       9.47398572      18.15176873  T       0.32056736      -0.04402115      -1.15098817
Si       2.10000000       3.98000000       2.32000000  F       0.00000000       0.00000000       0.00000000
Si       2.89294053       3.63597007       5.01947378  T      -1.49700781       0.27852451      -0.82282393
Si       0.89000000       1.15000000       1.77000000  F       0.00000000       0.00000000       0.00000000
Si       8.37986697       1.07690016       5.61406785  T       1.68921030      -0.05850637       0.49606701
Si       5.52225552       1.98467082       4.42151058  T       0.95373366       0.34584730      -0.19006351
Si       4.81089309       5.81749332       6.13460060  T       0.12296226      -0.57020672       0.56066802
Si       0.06044277       9.14510857       3.96422920  T       0.10035253       1.86461807       0.33812325
Si       6.19242331       5.14202241       3.62426525  T       0.14879588      -1.16106931      -0.70065824
Si       5.42000000       9.77000000       2.06000000  F       0.00000000       0.00000000       0.00000000
Si       8.43867545       7.02494603       2.75244462  T       0.46887260      -0.29390607      -0.22786212
Si       3.69820001       4.27173799       9.92407554  T      -0.95409575       0.19030191      -0.44231201
Si       2.27162963       1.62006227       8.96017398  T      -1.34872503       0.46973469       0.16532325
Si       0.48417018       2.82011956       6.97614123  T       1.02259811      -0.32608520       1.28179332
Si       5.03428388       1.23048380       7.47237722  T       0.90901566       0.02488214      -0.05921441
Si       6.56703976       3.46762397       9.06167328  T       0.16129995       0.03832729       0.97760187
Si       7.90589048       0.95806735      10.47325430  T      -1.86618123      -0.50765073      -0.39533092
Si       3.54217143       8.22205570      10.42408908  T      -0.56219509      -0.58122689      -0.22563032
Si       2.95684652       6.89550381       8.02295481  T      -0.03192172      -0.38351363      -0.10354236
Si       0.91255360       6.42751568      11.02154271  T      -0.53784262      -0.92081960       0.17684308
Si       0.29772374       5.78540201       7.94760784  T      -0.07828770      -0.33460834      -0.12684027
Si       5.89033533       7.05871767      11.60193233  T      -0.32931954       0.36319596       0.78863058
Si       7.41957472       6.09261511       7.77892889  T      -0.45174147       0.13682874       0.10748134
Si       7.37332621       9.28497617       8.03893536  T      -0.22771741      -0.10430014      -0.09880853
Si       7.93000000       1.02000000       0.50000000  F       0.00000000       0.00000000       0.00000000
Si       0.91000000       6.44000000       0.98000000  F       0.00000000       0.00000000       0.00000000
Si       5.91000000       7.08000000       1.49000000  F       0.00000000       0.00000000       0.00000000
C        5.02797541       5.00420930      23.82803130  T       0.40022355      -0.26945591     -13.25000421
F        5.78046579       6.05801246      23.83505336  T      -0.14751270       0.03019286     -20.79130208
F        5.78204556       3.94507249      23.83690175  T      -0.33377087       0.27742077     -20.75879169
153
Lattice="10.0 0.0 0.0 0.0 10.0 0.0 0.0 0.0 43.74" Properties=species:S:1:pos:R:3:move_mask:L:1:momenta:R:3 etch=trj_CF2_30eV_case1 idx=0 index=0 source=trj_CF2_30eV_case1/0000/OUTCAR converged=T time_fs=28.0 pbc="T T T"
O        2.19009983       4.63623541      13.87752639  T      -0.38650740       0.27444040       0.33774573
O        1.45538174       2.45742451      12.36748925  T      -0.47256526      -0.15353843      -1.57986765
O        3.84305667       2.59309247      14.26350614  T      -0.39419883      -0.89926207       0.40181089
O        3.74771615       4.53235984      16.11361763  T      -0.99556661      -0.99186771       0.14750854
O        1.73617168       2.89721058      15.87005877  T       1.13117127       0.09559888      -0.05967973
O        5.04812201       1.70405749      16.01600740  T      -0.18491884       0.54650521      -0.82826904
O        5.07416696       0.92429117      13.28646026  T      -1.21528914       0.93208130       0.47600642
O        6.15167029       3.62016987      14.04669558  T      -0.09481094       0.26836814      -0.13635498
O        7.09545578       1.44127770      14.72071563  T       0.57207074       0.95378451       0.73378597
O        8.99865261       2.30810839      16.40112765  T      -0.82392190       0.58802252       1.02516778
O        9.61959468       0.41373725      14.77827530  T       0.77006376       0.26491697       0.53055887
O        0.92283825       9.75979621      12.60943195  T      -0.00104754       0.38439691      -0.36396147
O        1.11379534       8.20959217      14.64744836  T      -0.13198188      -0.88492151       0.72744863
O        9.97345246       6.93391248      12.21046641  T       1.20268965      -0.75494086       1.16780803
O        5.28494417       6.14668242      14.61091792  T       1.22042794      -0.85409993       0.55245062
O        5.65004419       5.54914992      12.13499712  T      -0.05512119      -0.82506299      -0.97844986
O        7.74390461       5.83800625      13.63234138  T      -0.55442401       0.33536975      -0.28902625
O        5.59067624       8.24692213      12.64795050  T       0.05624554      -0.57593768       1.02827687
O        8.62213168       8.36293324      13.61892852  T       0.08693303      -0.17998723      -0.30647132
O        2.43513038       5.14859690      21.48504257  T       0.14161935      -0.74706875      -0.28138122
O        0.21246260       6.14919959      22.73029229  T       0.49806700      -0.47332323      -1.15188846
O        1.87885009       0.18761424      20.06094413  T       0.29421722       0.66575116       0.71498816
O        2.26073828       2.89153632      19.94113708  T       0.75488371      -1.63765572      -0.17274825
O        3.44814054       1.29339883      18.21417887  T       0.25126085       0.27960181      -0.20233037
O        0.83791867       1.59462697      18.05081781  T      -0.90210402       0.58591653       0.27144749
O        0.40307860       4.06008536      17.78321018  T      -0.25293108      -0.34834589       0.38617728
O        9.09138387       1.37607118      21.44002860  T      -0.14174375       0.33069221       0.16921782
O        5.44153789       3.03940707      18.25521126  T       0.54462260       0.37686966      -0.67495895
O        4.66841094       3.93166575      20.64356280  T       0.36277765      -0.23958561       0.50604914
O        7.06677465       2.73229943      20.32314132  T      -0.00477547       0.39103342       0.83636692
O        6.44868193       0.49513953      21.47303774  T       0.67187207       0.27535513       0.67739160
O        6.61205873       5.23433897      19.37707133  T      -0.09317940       0.15849356      -0.18050418
O        7.93062720       9.80818194      16.74281970  T      -0.14044072       0.17495946       0.75820176
O        3.83593874       6.97792664      16.83956164  T       0.08130786      -0.46558331      -0.42627990
O        3.80229788       9.39399325      21.39582429  T       0.61765594      -0.34855285      -0.59430254
O        3.24185898       7.99855832      19.12365954  T       0.52282602       0.29640249      -0.00575077
O        1.28305026       6.65091454      17.74241230  T       0.71624307      -0.07662723       0.54940146
O        3.20558924       5.28691470      18.87546558  T       0.08254011       0.21216843       0.31128405
O        0.23511204       5.57065000      20.01645123  T      -1.61992070       0.22212227      -1.08811087
O        1.52587042       7.75923739      21.13425418  T       0.16849023       0.65483216       0.72228737
O        4.73223830       8.41671102      21.98598134  T      -1.60889390      -1.26761763       0.28120934
O        8.04228597       0.20184347      19.36019079  T       0.49240365       0.08937720      -0.05968479
O        6.88416050       8.81312978      23.69259297  T      -0.51079533      -0.50251865      -0.55346100
O        6.19327700       5.80010630      16.89590778  T      -0.54963992       0.36159538       0.00869321
O        5.73743077       0.23318429      18.21474862  T      -0.39982600      -0.51458938       0.17207500
O        8.68064381       6.04606613      17.91991406  T       0.00232259       0.55073444       0.12057048
O        6.95753532       7.86861509      18.39872624  T      -0.37405938      -0.45420271       0.04117901
O        2.09078507       4.65566168       3.84657828  T      -1.00625426      -0.12855527       0.37539778
O        1.52324472       2.48040031       2.27224858  T       0.65903560       0.44547447      -2.68080548
O        3.88322390       2.68161022       4.16673636  T      -0.40585494      -0.10773348      -0.20224188
O        3.78300989       4.56894821       6.13874018  T       1.27161383       0.42942114       0.05899878
O        1.64715659       2.94387841       5.79805599  T      -0.31081459       0.43012625      -0.21015871
O        4.89721497       1.32108145       5.88205220  T       0.59489213       0.06511563       0.51600315
O        5.20449522       0.89552948       3.18517523  T       0.00388481       0.68994825      -0.45553705
O        6.18227298       3.59478588       4.05093131  T       0.19106732      -0.38623688      -0.21347490
O        7.08101275       1.51627633       4.78399823  T       0.42913784       1.61567337       1.08926621
O        9.08465954       2.31752952       6.35476868  T      -0.76885467      -1.28387624       0.30013409
O        9.64696814       0.56465139       4.65065749  T       0.32362615       1.17312585      -0.72148782
O        0.98242799       9.73579071       2.51880639  T       0.82929054      -0.54046408      -0.69512173
O        1.12200024       8.16983793       4.62081356  T       0.53283593      -1.79654470       0.83559930
O        9.87000000       6.98000000       2.02000000  F       0.00000000       0.00000000       0.00000000
O        5.28669962       6.06210505       4.61000520  T       1.14757749      -0.77029185       0.40831928
O        5.59000000       5.63000000       2.17000000  F       0.00000000       0.00000000       0.00000000
O        7.73916737       5.81867248       3.60149928  T      -0.45935012      -0.08242957      -0.25237504
O        5.59140211       8.24800701       2.51037263  T      -0.22621739      -0.48400400      -0.47238942
O        8.64021092       8.40409124       3.58067718  T       0.61666121       0.62604157      -0.17924964
O        3.47976573       4.14959128      11.51971513  T       0.14226178      -0.28872219       0.46101397
O        1.11970050       4.85974439      11.38909078  T      -0.25497705       0.05916263       0.37936323
O        1.75180834       0.88698556      10.31629703  T       0.47038348      -0.24361192      -1.08936937
O        2.71900201       3.13090398       9.28048596  T      -0.71275103       0.22914505      -0.46753335
O        3.63426433       1.02730332       8.22447069  T       0.91456096       0.44523877       0.43006161
O        0.96918960       1.60600830       7.96959435  T      -0.83016797      -0.03039387       0.21201497
O        0.44499480       4.18964822       7.85523655  T       0.17403307      -0.00188600      -0.52311144
O        9.27430508       1.31222797      11.31007129  T       0.37879080      -0.17366394      -0.74964903
O        5.99807493       2.53790203       7.81401843  T       0.43566216      -0.21683627       0.29615812
O        5.25917175       4.07555462       9.79659945  T       0.08622322       0.25981484       0.80330113
O        7.42382355       2.46220253      10.02858176  T       0.51049398       0.11947416      -0.33244107
O        6.74501650       0.21860622      11.28060034  T      -0.22113101       0.59019538      -0.48928438
O        7.47040990       4.81644733       8.81529041  T      -0.32614563       0.02318170      -1.53760191
O        8.03603507       9.81546537       6.63163775  T      -0.50484415       0.53659468       0.72367655
O        4.05391767       7.08925672       6.86554406  T      -0.68768936       0.57162787       0.53450221
O        4.05120380       9.60018535      11.15686591  T       0.81994746       0.52341411      -0.61110764
O        3.04238028       8.29490044       8.85140666  T      -0.28047726      -0.30105681       0.42654020
O        1.54651987       6.58782848       7.33481663  T       0.13157482       0.05495229      -2.50341174
O        3.29203253       5.66816357       9.08337061  T      -0.71159421       0.53329866       0.47398780
O        0.13202309       6.35963688       9.51533319  T       0.17885846      -1.39744899      -0.33714051
O        2.31276526       7.38358449      11.14999757  T       0.88579211       0.19011449       0.32926971
O        4.95117512       7.34228653      10.36161541  T       0.30478929      -0.97723025       1.54994603
O        8.25223897       0.02974874       9.20863905  T       1.19046523      -0.16804943       0.80189451
O        7.49690493       7.17984235      11.28985655  T      -0.01823067      -0.36635219      -0.01837847
O        6.22375105       5.52843059       6.85370936  T       0.26376926       0.33579522      -0.35362492
O        5.82045632       9.86427541       7.97455330  T       0.42451857      -0.09445242      -0.40179657
O        8.93753506       6.10692306       7.17816816  T       0.99739062       0.54459602      -0.30572758
O        7.18489127       7.66136389       8.19363879  T      -0.67139503      -0.31858614       0.28957886
O        3.55000000       4.18000000       1.53000000  F       0.00000000       0.00000000       0.00000000
O        1.14000000       4.89000000       1.35000000  F       0.00000000       0.00000000       0.00000000
O        9.29000000       1.31000000       1.44000000  F       0.00000000       0.00000000       0.00000000
O        6.84000000       0.20000000       1.30000000  F       0.00000000       0.00000000       0.00000000
O        3.95000000       9.60000000       1.25000000  F       0.00000000       0.00000000       0.00000000
O        2.28000000       7.42000000       1.08000000  F       0.00000000       0.00000000       0.00000000
O        7.52000000       7.21000000       1.37000000  F       0.00000000       0.00000000       0.00000000
Si       2.10450124       3.96650758      12.35700082  T      -0.98237803       0.58403417       1.04904348
Si       2.90801775       3.64184256      15.02656578  T      -0.26183738       0.55902737      -0.68375641
Si       0.82903115       1.12857281      11.68083491  T      -0.60148574      -0.85640433      -1.27472697
Si       8.33995463       1.02270679      15.62532828  T       0.62979029      -0.00057309       0.69728021
Si       5.54691138       2.07541559      14.44947398  T       1.16821486       1.03616534       0.56394928
Si       4.76364835       5.82949931      16.12173161  T       0.18915754      -1.36022047       0.44966463
Si       0.02087664       9.16781916      13.87647786  T       0.04762530       1.05842132      -0.70397169
Si       6.19934100       5.15896796      13.62191596  T       0.45166867      -0.68962227       0.42930289
Si       5.37187645       9.82688016      12.17946758  T      -1.23937487       2.04744959       0.97450722
Si       8.39570795       7.02838288      12.68259259  T       0.22436853      -0.20041320      -0.90089779
Si       3.14302894       4.30741113      20.22790914  T       1.20374370      -0.17574410       0.37827314
Si       2.10158571       1.49042453      19.05812020  T       0.11001030       1.34429905      -0.05206915
Si       0.47763332       2.69644124      16.89028003  T       0.22713648       1.03569939      -0.33390169
Si       4.96056705       1.55879236      17.63417566  T       0.59490510      -0.17859005       0.10576064
Si       5.95971849       3.72652010      19.65850229  T       0.09785163      -0.54355289      -1.48254454
Si       7.69735962       1.25061258      20.54955912  T       0.10257407       0.02711679       0.12738024
Si       2.56261633       8.75824217      20.39086868  T      -0.19262421       0.46904613       1.40974983
Si       2.89115316       6.72640153      18.15481317  T      -1.27176049       0.25987583       0.10793161
Si       1.10576587       6.13214731      21.32468074  T       0.40486425      -0.02477505       0.02591802
Si       0.14290901       5.55940703      18.38381523  T      -0.27095564      -0.00925863      -0.52304371
Si       6.09860307       9.24412266      22.47483041  T      -0.24339103       1.53695322      -0.34317196
Si       7.09055480       6.26213727      18.17078617  T      -0.94602599      -0.10769100       0.71698484
Si       7.18197114       9.47388306      18.14765061  T       0.32041483      -0.01656327      -1.19831142
Si       2.10000000       3.98000000       2.32000000  F       0.00000000       0.00000000       0.00000000
Si       2.88774994       3.63717922       5.01663294  T      -1.46697651       0.41348317      -0.80047902
Si       0.89000000       1.15000000       1.77000000  F       0.00000000       0.00000000       0.00000000
Si       8.38574866       1.07649611       5.61578606  T       1.66802383      -0.17398270       0.48498511
Si       5.52533973       1.98595491       4.42094177  T       0.80902666       0.38800599      -0.13411369
Si       4.81124135       5.81559632       6.13653263  T       0.07741924      -0.50933969       0.54394329
Si       0.06089598       9.15179183       3.96526343  T       0.16425356       1.95071569       0.25428563
Si       6.19299794       5.13796849       3.62199289  T       0.17930571      -1.15603785      -0.59830196
Si       5.42000000       9.77000000       2.06000000  F       0.00000000       0.00000000       0.00000000
Si       8.44019782       7.02395561       2.75164436  T       0.40040943      -0.27154627      -0.22857200
Si       3.69465771       4.27249604       9.92235169  T      -1.06974676       0.24254681      -0.54072505
Si       2.26700826       1.62163130       8.96073489  T      -1.28901977       0.42630681       0.15247674
Si       0.48798596       2.81890800       6.98063396  T       1.15305211      -0.36704355       1.28268511
Si       5.03767868       1.23045165       7.47218658  T       1.03191751      -0.04270537      -0.04821355
Si       6.56759885       3.46766822       9.06515984  T       0.15707172      -0.01247301       1.01427176
Si       7.89944095       0.95657723      10.47193958  T      -1.81572827      -0.34190141      -0.35650747
Si       3.54017451       8.21998226      10.42324529  T      -0.57499534      -0.60291375      -0.25534853
Si       2.95688756       6.89415730       8.02277224  T       0.05049819      -0.38602060      -0.00158036
Si       0.91079951       6.42427696      11.02191250  T      -0.46258895      -0.92896448       0.03400299
Si       0.29736066       5.78431678       7.94749313  T      -0.12440578      -0.28378818       0.05816840
Si       5.88927506       7.05993106      11.60462427  T      -0.27447543       0.32717059       0.75451206
Si       7.41809188       6.09307575       7.77938644  T      -0.39254243       0.12763131       0.15117046
Si       7.37231603       9.28474069       8.03845481  T      -0.34792539      -0.03038870      -0.17216534
Si       7.93000000       1.02000000       0.50000000  F       0.00000000       0.00000000       0.00000000
Si       0.91000000       6.44000000       0.98000000  F       0.00000000       0.00000000       0.00000000
Si       5.91000000       7.08000000       1.49000000  F       0.00000000       0.00000000       0.00000000
C        5.03055021       5.00203590      23.71964110  T       0.22727470      -0.25957688     -13.25670991
F        5.77990406       6.05825901      23.72756032  T      -0.06944398       0.06500560     -20.79007017
F        5.78055197       3.94637303      23.72958379  T      -0.24168916       0.22313537     -20.75459413
153
Lattice="10.0 0.0 0.0 0.0 10.0 0.0 0.0 0.0 43.74" Properties=species:S:1:pos:R:3:move_mask:L:1:momenta:R:3 etch=trj_CF2_30eV_case1 idx=0 index=0 source=trj_CF2_30eV_case1/0000/OUTCAR converged=T time_fs=29.0 pbc="T T T"
O        2.18781810       4.63758168      13.87948502  T      -0.35728880       0.16470246       0.29977573
O        1.45251371       2.45660413      12.35793046  T      -0.46091057      -0.11214212      -1.53290687
O        3.84060889       2.58782952      14.26582730  T      -0.40384903      -0.81302490       0.35404518
O        3.74180601       4.52638420      16.11453888  T      -0.92639254      -0.95111903       0.15375673
O        1.74275653       2.89763185      15.86974036  T       1.00952899       0.04031280      -0.04171798
O        5.04704341       1.70730957      16.01149446  T      -0.16624495       0.51205595      -0.63751697
O        5.06695745       0.92997690      13.28938303  T      -1.13160275       0.91923152       0.47543160
O        6.15107305       3.62168733      14.04582460  T      -0.09975643       0.22335060      -0.14666904
O        7.09922427       1.44705087      14.72517107  T       0.65492365       0.92621598       0.71671414
O        8.99348324       2.31173901      16.40724078  T      -0.85835937       0.59404457       0.96562843
O        9.62412473       0.41567177      14.78176280  T       0.70520312       0.36466629       0.60536129
O        0.92265719       9.76219979      12.60730481  T      -0.05771514       0.39739357      -0.32831821
O        1.11309460       8.20399649      14.65204597  T      -0.09891168      -0.93547798       0.76826578
O        9.98048200       6.92929060      12.21769633  T       1.08542228      -0.75000490       1.18673639
O        5.29235491       6.14122697      14.61429143  T       1.19193293      -0.92252273       0.54681599
O        5.64966903       5.54401567      12.12911078  T      -0.06544320      -0.84675868      -0.93524857
O        7.74056824       5.84006845      13.63044411  T      -0.53075897       0.33650928      -0.32901344
O        5.59101837       8.24381621      12.65469456  T       0.05471933      -0.43102173       1.16751608
O        8.62254002       8.36194406      13.61699727  T       0.04722821      -0.14107348      -0.32249779
O        2.43596250       5.14403748      21.48305030  T       0.12819487      -0.73719290      -0.36749564
O        0.21562975       6.14624131      22.72299972  T       0.53228383      -0.49038585      -1.22145933
O        1.88064298       0.19180856      20.06517373  T       0.29004162       0.70019848       0.66197309
O        2.26561272       2.88181682      19.94012998  T       0.83441091      -1.52162759      -0.15239515
O        3.44994689       1.29510056      18.21270561  T       0.33625358       0.27490731      -0.27747185
O        0.83246823       1.59804442      18.05249399  T      -0.87128547       0.52692629       0.27505326
O        0.40141532       4.05836783      17.78565075  T      -0.28848564      -0.20959234       0.40854902
O        9.09044856       1.37814472      21.44097591  T      -0.16266897       0.34477343       0.13951636
O        5.44496331       3.04150324      18.25112704  T       0.57084538       0.30513133      -0.65617643
O        4.67070398       3.93019458      20.64672673  T       0.38532222      -0.23992919       0.52298144
O        7.06682469       2.73466855      20.32818450  T       0.02048789       0.38038895       0.80558634
O        6.45293718       0.49669558      21.47719369  T       0.71343105       0.23257990       0.67504256
O        6.61141758       5.23517910      19.37604141  T      -0.11645285       0.11353636      -0.15383568
O        7.92984484       9.80944015      16.74726171  T      -0.11251774       0.23558190       0.68473366
O        3.83637503       6.97504620      16.83706005  T       0.05929905      -0.47302774      -0.38715384
O        3.80595112       9.39187816      21.39208108  T       0.57197408      -0.33970629      -0.62458546
O        3.24499649       8.00036022      19.12364971  T       0.49750334       0.29053653       0.00362298
O        1.28735162       6.65024113      17.74602706  T       0.68108407      -0.14301627       0.62665520
O        3.20616411       5.28805505      18.87769797  T       0.10478399       0.15875374       0.41604928
O        0.22536480       5.57215224      20.01007398  T      -1.55180777       0.26843293      -0.98362085
O        1.52683280       7.76283864      21.13871995  T       0.14433481       0.51629680       0.73262633
O        4.72238175       8.40888037      21.98773418  T      -1.59641526      -1.28009481       0.29126973
O        8.04528118       0.20242493      19.35978489  T       0.48177837       0.09981906      -0.07308365
O        6.88112776       8.80990105      23.68944917  T      -0.47722654      -0.54900448      -0.47049050
O        6.18999531       5.80222104      16.89611406  T      -0.51719018       0.32660507       0.06032036
O        5.73496763       0.23011871      18.21572596  T      -0.40153872      -0.48372462       0.14588932
O        8.68061535       6.04942837      17.92059980  T      -0.01302276       0.54449439       0.10211700
O        6.95517700       7.86605848      18.39907865  T      -0.39402283      -0.37556969       0.07345161
O        2.08477505       4.65432271       3.84878048  T      -0.95162596      -0.30733397       0.34083361
O        1.52732262       2.48293950       2.25575125  T       0.66874606       0.37978946      -2.69254769
O        3.88059853       2.68109671       4.16556733  T      -0.44979739      -0.05885196      -0.17772605
O        3.79040535       4.57114953       6.13885565  T       1.13287558       0.28336327      -0.02257404
O        1.64519908       2.94653907       5.79686234  T      -0.32759464       0.43575617      -0.17750487
O        4.90084773       1.32159866       5.88487305  T       0.58821001       0.10366835       0.39998358
O        5.20471974       0.89970436       3.18239013  T       0.06975965       0.66950540      -0.45126627
O        6.18342219       3.59240089       4.04942958  T       0.18295219      -0.39073489      -0.27615697
O        7.08410715       1.52600585       4.79070878  T       0.57950725       1.55197150       1.09646163
O        9.07994747       2.31006293       6.35681936  T      -0.75830125      -1.14239481       0.37255044
O        9.64882789       0.57176521       4.64615885  T       0.28330614       1.14330068      -0.74394217
O        0.98746933       9.73252455       2.51471357  T       0.81236232      -0.52274024      -0.63679021
O        1.12528989       8.15875737       4.62601679  T       0.53380927      -1.80758399       0.85615830
O        9.87000000       6.98000000       2.02000000  F       0.00000000       0.00000000       0.00000000
O        5.29370613       6.05749747       4.61237209  T       1.13363443      -0.72992662       0.36288963
O        5.59000000       5.63000000       2.17000000  F       0.00000000       0.00000000       0.00000000
O        7.73648640       5.81815886       3.59988558  T      -0.41214588      -0.08405923      -0.27364288
O        5.58993969       8.24489545       2.50793407  T      -0.25078849      -0.52631224      -0.32065200
O        8.64385291       8.40795894       3.57960246  T       0.56964753       0.63244241      -0.17120575
O        3.48069374       4.14779446      11.52269640  T       0.15804021      -0.29648941       0.50871922
O        1.11815435       4.86006695      11.39145616  T      -0.24856253       0.04493790       0.39089578
O        1.75460120       0.88537680      10.30973019  T       0.43749852      -0.28182454      -1.04598991
O        2.71471889       3.13261147       9.27765036  T      -0.68247103       0.32783158      -0.45616551
O        3.63941369       1.03016531       8.22731015  T       0.76031198       0.48772746       0.49561612
O        0.96415545       1.60588248       7.97086903  T      -0.80843857      -0.01208341       0.20413856
O        0.44609317       4.18934579       7.85194019  T       0.18363552      -0.09633651      -0.54968941
O        9.27632933       1.31106619      11.30539599  T       0.27754958      -0.20491954      -0.77411714
O        6.00078309       2.53674404       7.81600322  T       0.44675551      -0.15977931       0.35105345
O        5.25987927       4.07703038       9.80142283  T       0.14237465       0.22088522       0.76716760
O        7.42686112       2.46301164      10.02644657  T       0.47916614       0.14410666      -0.36225031
O        6.74317064       0.22207049      11.27801431  T      -0.38359735       0.53679409      -0.35022367
O        7.46845030       4.81651850       8.80596945  T      -0.31182969      -0.00231445      -1.49589014
O        8.03310550       9.81876864       6.63593538  T      -0.44782855       0.53918303       0.67389348
O        4.05008367       7.09247499       6.86845235  T      -0.55763080       0.47498180       0.41015239
O        4.05619732       9.60347084      11.15313904  T       0.80551784       0.54492010      -0.60363782
O        3.04061697       8.29314313       8.85419788  T      -0.29409324      -0.27135790       0.48130630
O        1.54720237       6.58816973       7.31925674  T       0.09057728       0.05466951      -2.56049778
O        3.28763368       5.67118236       9.08637858  T      -0.72115328       0.44906512       0.50602906
O        0.13345182       6.35107052       9.51349811  T       0.28680049      -1.39171204      -0.25858063
O        2.31786423       7.38456919      11.15203474  T       0.77124581       0.12834721       0.33508514
O        4.95277999       7.33625519      10.37077883  T       0.21285928      -0.98464265       1.42994326
O        8.25954858       0.02837527       9.21331074  T       1.18826459      -0.28134817       0.71662760
O        7.49700242       7.17758237      11.28997674  T       0.05040384      -0.36935759       0.05688893
O        6.22535890       5.53053872       6.85152714  T       0.25991456       0.35102725      -0.35690654
O        5.82325018       9.86367429       7.97218673  T       0.48450280      -0.10148512      -0.36842155
O        8.94334681       6.11043984       7.17599024  T       0.89056664       0.60134176      -0.40290659
O        7.18082223       7.65944890       8.19545483  T      -0.65363837      -0.30364493       0.30201052
O        3.55000000       4.18000000       1.53000000  F       0.00000000       0.00000000       0.00000000
O        1.14000000       4.89000000       1.35000000  F       0.00000000       0.00000000       0.00000000
O        9.29000000       1.31000000       1.44000000  F       0.00000000       0.00000000       0.00000000
O        6.84000000       0.20000000       1.30000000  F       0.00000000       0.00000000       0.00000000
O        3.95000000       9.60000000       1.25000000  F       0.00000000       0.00000000       0.00000000
O        2.28000000       7.42000000       1.08000000  F       0.00000000       0.00000000       0.00000000
O        7.52000000       7.21000000       1.37000000  F       0.00000000       0.00000000       0.00000000
Si       2.10092675       3.96859829      12.36066519  T      -1.05950424       0.60915223       1.04373579
Si       2.90708326       3.64384073      15.02416444  T      -0.27118825       0.58139861      -0.69005738
Si       0.82709954       1.12550008      11.67623342  T      -0.50165641      -0.89926630      -1.35771077
Si       8.34213673       1.02251681      15.62786329  T       0.61871746      -0.10652147       0.75295680
Si       5.55076099       2.07900694      14.45143794  T       1.03228780       1.01713163       0.55833906
Si       4.76424959       5.82477045      16.12320669  T       0.15192122      -1.34426344       0.39313590
Si       0.02113165       9.17151105      13.87382611  T       0.09975292       1.04958876      -0.81018725
Si       6.20095663       5.15675706      13.62349572  T       0.47101289      -0.57184162       0.46897945
Si       5.36760305       9.83394762      12.18265931  T      -1.20273454       1.98893501       0.85045226
Si       8.39659951       7.02765018      12.67941780  T       0.28592535      -0.21884850      -0.91317349
Si       3.14700276       4.30665742      20.22914744  T       1.06692983      -0.25659015       0.32794441
Si       2.10196485       1.49519051      19.05808848  T       0.10590646       1.37587534       0.03149881
Si       0.47860504       2.70018448      16.88932208  T       0.32807202       1.10286511      -0.21497698
Si       4.96255317       1.55825182      17.63446902  T       0.53992483      -0.13061283       0.05955996
Si       5.96012162       3.72474746      19.65315038  T       0.13341820      -0.46920134      -1.57470182
Si       7.69762023       1.25054824      20.55033572  T       0.04736944      -0.06314703       0.31568499
Si       2.56204237       8.75998145      20.39584872  T      -0.13453963       0.52618174       1.43400622
Si       2.88661015       6.72732727      18.15503724  T      -1.32037175       0.27056836       0.02053350
Si       1.10708750       6.13214243      21.32483502  T       0.34982817       0.02111745       0.05816668
Si       0.14211312       5.55938016      18.38176736  T      -0.18485159      -0.00580466      -0.64857408
Si       6.09776075       9.24974291      22.47335906  T      -0.24228787       1.67156933      -0.49752978
Si       7.08726997       6.26164337      18.17327150  T      -0.93017361      -0.17448025       0.70210854
Si       7.18307838       9.47385929      18.14341957  T       0.31092543       0.00123728      -1.21547711
Si       2.10000000       3.98000000       2.32000000  F       0.00000000       0.00000000       0.00000000
Si       2.88270229       3.63886392       5.01388098  T      -1.41570859       0.54985979      -0.77214272
Si       0.89000000       1.15000000       1.77000000  F       0.00000000       0.00000000       0.00000000
Si       8.39150033       1.07567570       5.61745210  T       1.61540111      -0.29624627       0.46641751
Si       5.52791111       1.98738197       4.42057810  T       0.66108448       0.42747751      -0.07300442
Si       4.81144288       5.81395879       6.13840323  T       0.03937806      -0.42262650       0.52517097
Si       0.06162161       9.15871650       3.96601301  T       0.25547408       2.00272892       0.17510256
Si       6.19367472       5.13394251       3.62008185  T       0.20723377      -1.14500532      -0.49438355
Si       5.42000000       9.77000000       2.06000000  F       0.00000000       0.00000000       0.00000000
Si       8.44146949       7.02305199       2.75085250  T       0.32571455      -0.24422020      -0.22311827
Si       3.69072979       4.27343021       9.92031079  T      -1.17386014       0.29078104      -0.62303798
Si       2.26264039       1.62303911       8.96122388  T      -1.20424414       0.37815126       0.12439025
Si       0.49219873       2.81755070       6.98508612  T       1.24967512      -0.40927644       1.25848060
Si       5.04149847       1.23018897       7.47204894  T       1.15147392      -0.10672774      -0.02902295
Si       6.56813095       3.46754085       9.06875674  T       0.14596699      -0.05949595       1.04056361
Si       7.89322345       0.95568799      10.47075923  T      -1.73425952      -0.16499808      -0.31885973
Si       3.53817660       8.21784771      10.42231298  T      -0.56290500      -0.61603715      -0.27586208
Si       2.95717094       6.89280609       8.02293796  T       0.10660606      -0.38625070       0.09507218
Si       0.90933135       6.42103055      11.02177958  T      -0.37493896      -0.92526401      -0.10971858
Si       0.29688115       5.78342791       7.94799489  T      -0.14529547      -0.22292792       0.22502890
Si       5.88842958       7.06098731      11.60723339  T      -0.20668303       0.27388297       0.74164170
Si       7.41684868       6.09351418       7.77996887  T      -0.31526263       0.12418087       0.17890949
Si       7.37090549       9.28476205       8.03775286  T      -0.45622602       0.04210799      -0.22560333
Si       7.93000000       1.02000000       0.50000000  F       0.00000000       0.00000000       0.00000000
Si       0.91000000       6.44000000       0.98000000  F       0.00000000       0.00000000       0.00000000
Si       5.91000000       7.08000000       1.49000000  F       0.00000000       0.00000000       0.00000000
C        5.03167269       4.99999661      23.61121371  T       0.04647438      -0.23686899     -13.25900481
F        5.77974777       6.05868013      23.62007099  T       0.00868357       0.09703293     -20.78986101
F        5.77956308       3.94736144      23.62228866  T      -0.13929887       0.15751173     -20.74987434
153
Lattice="10.0 0.0 0.0 0.0 10.0 0.0 0.0 0.0 43.74" Properties=species:S:1:pos:R:3:move_mask:L:1:momenta:R:3 etch=trj_CF2_30eV_case1 idx=0 index=0 source=trj_CF2_30eV_case1/0000/OUTCAR converged=T time_fs=30.0 pbc="T T T"
O        2.18570687       4.63826519      13.88120298  T      -0.33107193       0.05880049       0.25951584
O        1.44972922       2.45606135      12.34867637  T      -0.44557736      -0.06353546      -1.48079664
O        3.83809146       2.58313015      14.26785129  T      -0.41677701      -0.71588131       0.30512525
O        3.73637274       4.52071600      16.11551708  T      -0.84061771      -0.89210629       0.16596015
O        1.74852685       2.89769373      15.86956827  T       0.86655565      -0.02113465      -0.01243031
O        5.04608320       1.71033764      16.00821690  T      -0.14624549       0.47372555      -0.42715565
O        5.06028806       0.93556956      13.29229101  T      -1.03947592       0.90169959       0.47113235
O        6.15044543       3.62288775      14.04490143  T      -0.10466806       0.16550666      -0.15344205
O        7.10348853       1.45264514      14.72950670  T       0.73301343       0.89568018       0.69466775
O        8.98813227       2.31539742      16.41298030  T      -0.88260891       0.59729187       0.90377934
O        9.62825259       0.41820462      14.78570341  T       0.63962188       0.45899713       0.67745286
O        0.92213267       9.76466436      12.60540575  T      -0.11276268       0.40440393      -0.28993489
O        1.11255374       8.19813061      14.65686146  T      -0.07992153      -0.97286520       0.79838568
O        9.98676621       6.92470844      12.22502886  T       0.96069892      -0.74227186       1.20064097
O        5.29956228       6.13536104      14.61763590  T       1.15416284      -0.98760648       0.54303027
O        5.64925703       5.53876080      12.12355030  T      -0.06721097      -0.86410802      -0.87266575
O        7.73740388       5.84213915      13.62830186  T      -0.49848100       0.33809329      -0.36874837
O        5.59134396       8.24167159      12.66227212  T       0.05101544      -0.26420403       1.29920519
O        8.62272368       8.36121285      13.61496999  T       0.01381119      -0.09598097      -0.33776350
O        2.43669180       5.13955509      21.48053252  T       0.10814198      -0.72196140      -0.45232874
O        0.21898344       6.14317769      22.71531888  T       0.55860910      -0.50764831      -1.27797629
O        1.88241382       0.19620712      20.06906486  T       0.28704686       0.73206582       0.60492827
O        2.27099707       2.87292001      19.93929531  T       0.92068689      -1.37021629      -0.11668074
O        3.45225573       1.29677636      18.21077542  T       0.41411083       0.27120507      -0.35070563
O        0.82724145       1.60109406      18.05420009  T      -0.82931493       0.46631721       0.28119177
O        0.39954116       4.05752394      17.78822242  T      -0.32147782      -0.06449044       0.42863104
O        9.08938986       1.38030460      21.44174370  T      -0.18180783       0.35880090       0.11083655
O        5.44854354       3.04314627      18.24714717  T       0.59506860       0.22946333      -0.64093839
O        4.67315275       3.92871745      20.64996751  T       0.41327454      -0.24138769       0.53104306
O        7.06702011       2.73696653      20.33302406  T       0.04254756       0.36781237       0.77008325
O        6.45743325       0.49800749      21.48131173  T       0.75030352       0.19608697       0.66490921
O        6.61062165       5.23571779      19.37519366  T      -0.14344645       0.06060951      -0.12128075
O        7.92926435       9.81108016      16.75118772  T      -0.07482818       0.29905075       0.59049923
O        3.83665217       6.97211534      16.83482145  T       0.02962703      -0.48199573      -0.34087399
O        3.80931794       9.38982934      21.38816075  T       0.52458561      -0.32701187      -0.65182814
O        3.24795020       8.00212495      19.12371435  T       0.46296584       0.28420191       0.01836471
O        1.29137368       6.64915656      17.75009082  T       0.62525805      -0.21037853       0.69543925
O        3.20687593       5.28886108      18.88057261  T       0.12704707       0.10378684       0.51993216
O        0.21609073       5.57395714      20.00442608  T      -1.46621450       0.32048067      -0.85161093
O        1.52763794       7.76556077      21.14325063  T       0.11769494       0.36927469       0.74318145
O        4.71268949       8.40102531      21.98957146  T      -1.55591423      -1.27556367       0.30842823
O        8.04818634       0.20306747      19.35928886  T       0.46310440       0.10938319      -0.08883875
O        6.87829633       8.80639298      23.68681215  T      -0.44586386      -0.59314330      -0.38939053
O        6.18694696       5.80410979      16.89666541  T      -0.47402013       0.28800087       0.12076699
O        5.73251109       0.22724743      18.21653592  T      -0.39759564      -0.45136546       0.11757202
O        8.68047022       6.05275152      17.92116107  T      -0.03548932       0.53797721       0.08007349
O        6.95269878       7.86403147      18.39962615  T      -0.41309119      -0.28234251       0.10468471
O        2.07909825       4.65189270       3.85075186  T      -0.89787705      -0.48360496       0.30024148
O        1.53145092       2.48504637       2.23919391  T       0.67563587       0.30504161      -2.70038359
O        3.87769734       2.68089391       4.16456201  T      -0.49552143      -0.00667351      -0.14906396
O        3.79687726       4.57238847       6.13845282  T       0.97157335       0.11691132      -0.10945527
O        1.64312791       2.94922086       5.79588724  T      -0.34754613       0.43708662      -0.13920696
O        4.90443477       1.32235655       5.88693853  T       0.58001520       0.14333621       0.27089057
O        5.20535667       0.90374569       3.17963937  T       0.13816979       0.64659340      -0.44423586
O        6.18451601       3.58998691       4.04753645  T       0.17303297      -0.39579731      -0.34086827
O        7.08812956       1.53531668       4.79745717  T       0.73037902       1.47966420       1.10122725
O        9.07542466       2.30355978       6.35938847  T      -0.70799834      -0.97082207       0.46846801
O        9.65045838       0.57868136       4.64152318  T       0.24896611       1.10890461      -0.76605187
O        0.99239722       9.72938012       2.51100015  T       0.79237378      -0.50073903      -0.57169131
O        1.12850676       8.14769594       4.63129503  T       0.50966893      -1.79070964       0.86035121
O        9.87000000       6.98000000       2.02000000  F       0.00000000       0.00000000       0.00000000
O        5.30060696       6.05314937       4.61446418  T       1.11307107      -0.68581543       0.31902403
O        5.59000000       5.63000000       2.17000000  F       0.00000000       0.00000000       0.00000000
O        7.73412458       5.81764801       3.59813614  T      -0.35557192      -0.08167654      -0.29649280
O        5.58831655       8.24157854       2.50644748  T      -0.27852768      -0.55082960      -0.16257017
O        8.64720578       8.41184290       3.57857148  T       0.52267224       0.63145589      -0.16495453
O        3.48168604       4.14595214      11.52594592  T       0.16325046      -0.30347761       0.54817782
O        1.11664902       4.86028712      11.39388727  T      -0.24181364       0.02599700       0.40067087
O        1.75716197       0.88351116      10.30349079  T       0.39499463      -0.32723744      -0.98303025
O        2.71062034       3.13493360       9.27488387  T      -0.65297673       0.42867155      -0.44519970
O        3.64358066       1.03329775       8.23056033  T       0.59582968       0.53311452       0.56320356
O        0.95927670       1.60584356       7.97211176  T      -0.77940333      -0.00229638       0.20187062
O        0.44724788       4.18847325       7.84849851  T       0.19229721      -0.18663577      -0.57018648
O        9.27768591       1.30971072      11.30055962  T       0.16213275      -0.23670796      -0.80180160
O        6.00356177       2.53594415       7.81833422  T       0.45840446      -0.10060461       0.40863084
O        5.26089761       4.07826744       9.80601258  T       0.18689026       0.18223289       0.72736769
O        7.42970968       2.46397095      10.02414331  T       0.44908126       0.16817418      -0.38702757
O        6.74027776       0.22518544      11.27632445  T      -0.56087346       0.47708279      -0.19839413
O        7.46658492       4.81639538       8.79695120  T      -0.29541879      -0.04005082      -1.43906129
O        8.03055204       9.82208203       6.63988962  T      -0.38252685       0.53965963       0.61215820
O        4.04710278       7.09507368       6.87055694  T      -0.41074284       0.37029843       0.27360911
O        4.06108182       9.60685615      11.14944618  T       0.78429081       0.55583534      -0.60011084
O        3.03876715       8.29156795       8.85730042  T      -0.30871274      -0.24189511       0.52760033
O        1.54763258       6.58848481       7.30342646  T       0.04983176       0.04659214      -2.59126643
O        3.28317895       5.67366988       9.08958420  T      -0.72990175       0.36076136       0.53805976
O        0.13554607       6.34256187       9.51217750  T       0.39542839      -1.37867104      -0.16989323
O        2.32219763       7.38513875      11.15411902  T       0.63698351       0.05526699       0.34448052
O        4.95373918       7.33022419      10.37912399  T       0.09510450      -0.97737132       1.28400226
O        8.26680484       0.02627748       9.21740981  T       1.17303178      -0.40326460       0.61635455
O        7.49752598       7.17531211      11.29054709  T       0.12014498      -0.36968011       0.12798410
O        6.22694151       5.53274178       6.84933037  T       0.25550608       0.36671218      -0.35835432
O        5.82639169       9.86302924       7.97003612  T       0.53723934      -0.10852843      -0.33154434
O        8.94842244       6.11430934       7.17323091  T       0.75875661       0.65929240      -0.49481245
O        7.17686981       7.65765154       8.19734720  T      -0.63345854      -0.28030097       0.31442892
O        3.55000000       4.18000000       1.53000000  F       0.00000000       0.00000000       0.00000000
O        1.14000000       4.89000000       1.35000000  F       0.00000000       0.00000000       0.00000000
O        9.29000000       1.31000000       1.44000000  F       0.00000000       0.00000000       0.00000000
O        6.84000000       0.20000000       1.30000000  F       0.00000000       0.00000000       0.00000000
O        3.95000000       9.60000000       1.25000000  F       0.00000000       0.00000000       0.00000000
O        2.28000000       7.42000000       1.08000000  F       0.00000000       0.00000000       0.00000000
O        7.52000000       7.21000000       1.37000000  F       0.00000000       0.00000000       0.00000000
Si       2.09710316       3.97075454      12.36428605  T      -1.12463013       0.62143454       1.02409331
Si       2.90612819       3.64589616      15.02173599  T      -0.27379000       0.59163538      -0.69894349
Si       0.82552909       1.12229169      11.67133217  T      -0.39542521      -0.93369051      -1.44579897
Si       8.34428642       1.02197175      15.63059887  T       0.61119207      -0.20326198       0.81198138
Si       5.55412822       2.08252768      14.45337577  T       0.89270049       0.99559913       0.54928442
Si       4.76469610       5.82009465      16.12447839  T       0.10104121      -1.32973801       0.33369235
Si       0.02158209       9.17514382      13.87082564  T       0.15889553       1.02504895      -0.90266606
Si       6.20262927       5.15498238      13.62516757  T       0.48445933      -0.44089191       0.48225596
Si       5.36347165       9.84076526      12.18541669  T      -1.15849571       1.90530414       0.72659628
Si       8.39771043       7.02685083      12.67621409  T       0.34971693      -0.23838281      -0.91710733
Si       3.15048368       4.30560950      20.23019267  T       0.92241240      -0.34365108       0.26806427
Si       2.10232262       1.50001808      19.05832490  T       0.09823361       1.37943026       0.10079293
Si       0.47992310       2.70414379      16.88876992  T       0.42437272       1.15909583      -0.10185234
Si       4.96433942       1.55787766      17.63457974  T       0.48093540      -0.08361557       0.00189093
Si       5.96065581       3.72324225      19.64750651  T       0.17270704      -0.39101061      -1.64931905
Si       7.69769644       1.25017589      20.55175981  T      -0.00284102      -0.14882423       0.49711332
Si       2.56167991       8.76192549      20.40087651  T      -0.07218408       0.58576521       1.43723010
Si       2.88195143       6.72829946      18.15496059  T      -1.33768164       0.28611980      -0.06340826
Si       1.10820814       6.13228946      21.32506350  T       0.29042567       0.06192211       0.06835133
Si       0.14161093       5.55936906      18.37927769  T      -0.10337406       0.00006889      -0.77480133
Si       6.09688743       9.25578226      22.47135851  T      -0.26024260       1.77602451      -0.64429757
Si       7.08406095       6.26091952      18.17568573  T      -0.90271824      -0.23876007       0.67656158
Si       7.18413515       9.47388223      18.13918131  T       0.29147899       0.01037244      -1.20255008
Si       2.10000000       3.98000000       2.32000000  F       0.00000000       0.00000000       0.00000000
Si       2.87786757       3.64102355       5.01123782  T      -1.34571129       0.68448061      -0.73829347
Si       0.89000000       1.15000000       1.77000000  F       0.00000000       0.00000000       0.00000000
Si       8.39701786       1.07441908       5.61904184  T       1.53493446      -0.42285412       0.44165483
Si       5.52996396       1.98894151       4.42043526  T       0.51310269       0.46366141      -0.00809656
Si       4.81152638       5.81266315       6.14020187  T       0.01007116      -0.31481712       0.50245965
Si       0.06270880       9.16576425       3.96649193  T       0.37028296       2.02124896       0.09927695
Si       6.19444497       5.12996627       3.61853442  T       0.23281606      -1.12750702      -0.39070995
Si       5.42000000       9.77000000       2.06000000  F       0.00000000       0.00000000       0.00000000
Si       8.44247064       7.02225301       2.75008999  T       0.24595672      -0.21165653      -0.21187342
Si       3.68646326       4.27452435       9.91801431  T      -1.26274587       0.33380304      -0.68638324
Si       2.25860901       1.62427478       8.96158970  T      -1.09714849       0.32845212       0.08232080
Si       0.49669131       2.81604464       6.98940931  T       1.31331169      -0.45194483       1.20896221
Si       5.04572613       1.22971026       7.47199167  T       1.26455737      -0.16601758      -0.00243704
Si       6.56861298       3.46725804       9.07242661  T       0.12853983      -0.10104426       1.05593620
Si       7.88733878       0.95542922      10.46970600  T      -1.62635730       0.01750857      -0.28407752
Si       3.53626289       8.21568308      10.42132787  T      -0.52716573      -0.62004713      -0.28518501
Si       2.95760486       6.89145780       8.02342821  T       0.13677170      -0.38436410       0.18344036
Si       0.90818696       6.41781741      11.02114942  T      -0.27801027      -0.90999579      -0.24941744
Si       0.29636881       5.78276469       7.94904367  T      -0.14381634      -0.15541355       0.37036672
Si       5.88784186       7.06183164      11.60983681  T      -0.12745795       0.20669394       0.75138060
Si       7.41590297       6.09395088       7.78062073  T      -0.22303551       0.12665512       0.19094943
Si       7.36914028       9.28503100       8.03689713  T      -0.55030901       0.11074160      -0.26038613
Si       7.93000000       1.02000000       0.50000000  F       0.00000000       0.00000000       0.00000000
Si       0.91000000       6.44000000       0.98000000  F       0.00000000       0.00000000       0.00000000
Si       5.91000000       7.08000000       1.49000000  F       0.00000000       0.00000000       0.00000000
C        5.03131022       4.99819028      23.50278732  T      -0.13435463      -0.20294672     -13.25633393
F        5.77998861       6.05925201      23.51257976  T       0.08356550       0.12266178     -20.79091678
F        5.77912138       3.94799110      23.51502076  T      -0.03081368       0.08527396     -20.74392100
153
Lattice="10.0 0.0 0.0 0.0 10.0 0.0 0.0 0.0 43.74" Properties=species:S:1:pos:R:3:move_mask:L:1:momenta:R:3 etch=trj_CF2_30eV_case1 idx=0 index=0 source=trj_CF2_30eV_case1/0000/OUTCAR converged=T time_fs=31.0 pbc="T T T"
O        2.18374605       4.63831363      13.88266902  T      -0.30838458      -0.04193186       0.21788683
O        1.44704707       2.45583318      12.33975551  T      -0.42781723      -0.01013235      -1.42454157
O        3.83548617       2.57905780      14.26957303  T      -0.43233624      -0.60900153       0.25571197
O        3.73151145       4.51546057      16.11658681  T      -0.74052247      -0.81712837       0.18340197
O        1.75336411       2.89736426      15.86960487  T       0.70641622      -0.08678045       0.02577619
O        5.04525129       1.71312116      16.00627318  T      -0.12434196       0.43260866      -0.20438935
O        5.05420835       0.94103939      13.29516042  T      -0.93965999       0.87916258       0.46281714
O        6.14978835       3.62369998      14.04394613  T      -0.10930290       0.09746066      -0.15726673
O        7.10821041       1.45804515      14.73369065  T       0.80348471       0.86310834       0.66723571
O        8.98266964       2.31907012      16.41833714  T      -0.89432939       0.59891003       0.84126337
O        9.63198314       0.42128928      14.79006897  T       0.57632922       0.54366611       0.74311298
O        0.92127740       9.76715565      12.60374706  T      -0.16529220       0.40627162      -0.25030384
O        1.11208640       8.19207622      14.66182879  T      -0.07490231      -0.99688386       0.81774450
O        9.99227231       6.92017875      12.23242356  T       0.83270931      -0.73317304       1.20642810
O        5.30650917       6.12910860      14.62096328  T       1.10708578      -1.04821750       0.54127967
O        5.64885907       5.53341595      12.11842827  T      -0.06099623      -0.87583590      -0.79285231
O        7.73446278       5.84422029      13.62591754  T      -0.45815713       0.33985157      -0.40778456
O        5.59164226       8.24059948      12.67062702  T       0.04598653      -0.08306846       1.42013127
O        8.62272217       8.36077689      13.61285112  T      -0.01306507      -0.04495618      -0.35235620
O        2.43727762       5.13518281      21.47750078  T       0.08142393      -0.70131456      -0.53473593
O        0.22247158       6.14000736      22.70733631  T       0.57586553      -0.52515589      -1.31936219
O        1.88417009       0.20079062      20.07259603  T       0.28531261       0.76024662       0.54491656
O        2.27692776       2.86505313      19.93872517  T       1.01207228      -1.18685576      -0.06643326
O        3.45500981       1.29843316      18.20840767  T       0.48051806       0.26877006      -0.41955838
O        0.82230549       1.60376953      18.05595155  T      -0.77665442       0.40526478       0.28981414
O        0.39747420       4.05758042      17.79090700  T      -0.35116200       0.08293469       0.44508482
O        9.08822086       1.38255025      21.44233987  T      -0.19847445       0.37270515       0.08370818
O        5.45226660       3.04431550      18.24325054  T       0.61739431       0.15101465      -0.62898710
O        4.67578627       3.92722937      20.65322933  T       0.44515712      -0.24352191       0.52956793
O        7.06734061       2.73918086      20.33763213  T       0.06123280       0.35307568       0.73016673
O        6.46214109       0.49911787      21.48534207  T       0.78239450       0.16714719       0.64638003
O        6.60965072       5.23591146      19.37456215  T      -0.17328449       0.00150850      -0.08354211
O        7.92894283       9.81311459      16.75447748  T      -0.02839266       0.36373381       0.47803706
O        3.83672589       6.96912497      16.83288540  T      -0.00678365      -0.49239019      -0.28886606
O        3.81239183       9.38786961      21.38408480  T       0.47681129      -0.31073591      -0.67509994
O        3.25066390       8.00384819      19.12388386  T       0.41935821       0.27693450       0.03761219
O        1.29499016       6.64765796      17.75454811  T       0.54908671      -0.27768998       0.75467102
O        3.20772319       5.28933192      18.88407488  T       0.14881619       0.05009858       0.61995258
O        0.20738988       5.57609613      19.99965796  T      -1.36554877       0.37704249      -0.69822919
O        1.52827768       7.76736525      21.14784333  T       0.09090103       0.21820557       0.75256323
O        4.70332449       8.39324916      21.99153242  T      -1.49040313      -1.25451849       0.33129823
O        8.05095275       0.20376749      19.35869165  T       0.43663968       0.11864860      -0.10582980
O        6.87564230       8.80262605      23.68465408  T      -0.42002488      -0.63296753      -0.31541198
O        6.18419090       5.80575080      16.89761017  T      -0.42245031       0.24593486       0.18807921
O        5.73009699       0.22457857      18.21716576  T      -0.38767433      -0.41783638       0.08723206
O        8.68016815       6.05603348      17.92157681  T      -0.06390554       0.53104774       0.05478797
O        6.95010660       7.86261239      18.40036168  T      -0.43111564      -0.17827640       0.13466160
O        2.07374644       4.64839299       3.85245594  T      -0.84592909      -0.65543232       0.25378718
O        1.53561544       2.48667227       2.22260005  T       0.68075922       0.22359736      -2.70447182
O        3.87451255       2.68101940       4.16374321  T      -0.54197210       0.04791565      -0.11714282
O        3.80230119       4.57255692       6.13750524  T       0.79245092      -0.06419484      -0.19967124
O        1.64092867       2.95189878       5.79516111  T      -0.36897267       0.43459639      -0.09669011
O        4.90796708       1.32335894       5.88818449  T       0.57039970       0.18312605       0.13406301
O        5.20642058       0.90764074       3.17694173  T       0.20878760       0.62199763      -0.43385674
O        6.18554354       3.58753858       4.04524129  T       0.16137078      -0.40203462      -0.40700306
O        7.09306575       1.54416232       4.80422250  T       0.87614203       1.40083257       1.10162160
O        9.07132057       2.29819009       6.36261010  T      -0.62297422      -0.77428699       0.58433303
O        9.65189647       0.58537465       4.63675387  T       0.22060509       1.07088587      -0.78738561
O        0.99719358       9.72638487       2.50770488  T       0.76956666      -0.47406874      -0.50076887
O        1.13150557       8.13681838       4.63655299  T       0.46332529      -1.74810795       0.84986301
O        9.87000000       6.98000000       2.02000000  F       0.00000000       0.00000000       0.00000000
O        5.30736023       6.04908286       4.61629461  T       1.08550264      -0.63825538       0.27784585
O        5.59000000       5.63000000       2.17000000  F       0.00000000       0.00000000       0.00000000
O        7.73213612       5.81716196       3.59624299  T      -0.29075595      -0.07616528      -0.32033846
O        5.58651416       8.23816585       2.50594687  T      -0.30909902      -0.55760086       0.00020660
O        8.65027285       8.41569983       3.57757402  T       0.47672445       0.62377980      -0.16023521
O        3.48267871       4.14407018      11.52940970  T       0.15824946      -0.30933819       0.57834890
O        1.11518433       4.86037920      11.39637156  T      -0.23545931       0.00342656       0.40810668
O        1.75943533       0.88134568      10.29769311  T       0.34413282      -0.37937752      -0.90254150
O        2.70669595       3.13787226       9.27218117  T      -0.62605991       0.52799227      -0.43554297
O        3.64672352       1.03671474       8.23422308  T       0.42797906       0.58019667       0.62937870
O        0.95460045       1.60583597       7.97336109  T      -0.74234876      -0.00203971       0.20650853
O        0.44845172       4.18707186       7.84495309  T       0.19955480      -0.26767387      -0.58323966
O        9.27830196       1.30815907      11.29554773  T       0.03723154      -0.26878357      -0.83095905
O        6.00641056       2.53550836       7.82102280  T       0.46935274      -0.04160675       0.46722124
O        5.26214649       4.07927021       9.81034890  T       0.21703579       0.14470566       0.68476332
O        7.43237935       2.46507334      10.02170547  T       0.42102379       0.19050531      -0.40594202
O        6.73626956       0.22792387      11.27559142  T      -0.74544071       0.41489080      -0.03969226
O        7.46482720       4.81600429       8.78832695  T      -0.27672402      -0.08944817      -1.36769155
O        8.02842200       9.82538869       6.64343309  T      -0.31014201       0.53674335       0.54050134
O        4.04506217       7.09701154       6.87179838  T      -0.25236723       0.26018604       0.12996145
O        4.06581336       9.61027496      11.14576197  T       0.75557643       0.55578481      -0.60086257
O        3.03682375       8.29017066       8.86065664  T      -0.32462956      -0.21357764       0.56362749
O        1.54781901       6.58872870       7.28749057  T       0.01154891       0.03166786      -2.59478165
O        3.27867158       5.67560988       9.09298215  T      -0.73840499       0.27124868       0.56834983
O        0.13830634       6.33415539       9.51142756  T       0.50353348      -1.35846539      -0.07309678
O        2.32565437       7.38523029      11.15626986  T       0.48633326      -0.02693778       0.35657570
O        4.95390614       7.32427905      10.38650320  T      -0.04430129      -0.95702125       1.11619231
O        8.27392679       0.02341461       9.22086056  T       1.14444871      -0.52982697       0.50644512
O        7.49847550       7.17304834      11.29153744  T       0.18874016      -0.36722947       0.19343507
O        6.22849486       5.53504236       6.84713047  T       0.25035145       0.38277686      -0.35791803
O        5.82982773       9.86234410       7.96812133  T       0.57993271      -0.11429651      -0.29171031
O        8.95262824       6.11853548       7.16992784  T       0.60848882       0.71729522      -0.57968982
O        7.17304798       7.65602262       8.19931557  T      -0.61115595      -0.24885039       0.32675369
O        3.55000000       4.18000000       1.53000000  F       0.00000000       0.00000000       0.00000000
O        1.14000000       4.89000000       1.35000000  F       0.00000000       0.00000000       0.00000000
O        9.29000000       1.31000000       1.44000000  F       0.00000000       0.00000000       0.00000000
O        6.84000000       0.20000000       1.30000000  F       0.00000000       0.00000000       0.00000000
O        3.95000000       9.60000000       1.25000000  F       0.00000000       0.00000000       0.00000000
O        2.28000000       7.42000000       1.08000000  F       0.00000000       0.00000000       0.00000000
O        7.52000000       7.21000000       1.37000000  F       0.00000000       0.00000000       0.00000000
Si       2.09307410       3.97293086      12.36781279  T      -1.17685523       0.62058947       0.98990009
Si       2.90517431       3.64796528      15.01927462  T      -0.27072932       0.58913660      -0.70848025
Si       0.82433771       1.11897983      11.66611656  T      -0.28539357      -0.95815872      -1.53711657
Si       8.34641546       1.02110708      15.63354665  T       0.60682373      -0.28895374       0.87425969
Si       5.55700325       2.08596719      14.45527816  T       0.75113052       0.97045628       0.53839718
Si       4.76494385       5.81546824      16.12553971  T       0.03872046      -1.31587054       0.27319942
Si       0.02224788       9.17866674      13.86753106  T       0.22238409       0.98725092      -0.97771185
Si       6.20434017       5.15368284      13.62684229  T       0.49311113      -0.30098621       0.47104374
Si       5.35950582       9.84725187      12.18774477  T      -1.10837530       1.80034938       0.60542805
Si       8.39904783       7.02598237      12.67301366  T       0.41539580      -0.25820600      -0.91098062
Si       3.15345114       4.30424937      20.23101625  T       0.77439356      -0.43454183       0.20255038
Si       2.10265062       1.50480894      19.05877553  T       0.08930665       1.35498044       0.15366687
Si       0.48156374       2.70827958      16.88860341  T       0.51174670       1.20367197       0.00560131
Si       4.96591489       1.55766485      17.63447303  T       0.41973984      -0.03852601      -0.06420955
Si       5.96133345       3.72201425      19.64163307  T       0.21544350      -0.31108835      -1.70593141
Si       7.69760593       1.24951334      20.55380246  T      -0.04795479      -0.22890543       0.66888464
Si       2.56153904       8.76407924      20.40588041  T      -0.00837774       0.64568614       1.42060747
Si       2.87728837       6.72933215      18.15460096  T      -1.32275734       0.30484925      -0.14071584
Si       1.10911720       6.13256904      21.32528902  T       0.22935636       0.09675148       0.05646901
Si       0.14138278       5.55938512      18.37635225  T      -0.02851694       0.01003802      -0.89679873
Si       6.09592468       9.26212999      22.46886902  T      -0.29255090       1.84741802      -0.77572357
Si       7.08096775       6.25997851      18.17799392  T      -0.86404011      -0.29823211       0.64177144
Si       7.18510621       9.47392385      18.13503949  T       0.26193751       0.01221463      -1.16063867
Si       2.10000000       3.98000000       2.32000000  F       0.00000000       0.00000000       0.00000000
Si       2.87330652       3.64364658       5.00872268  T      -1.25975619       0.81429241      -0.69889792
Si       0.89000000       1.15000000       1.77000000  F       0.00000000       0.00000000       0.00000000
Si       8.40221203       1.07271701       5.62053675  T       1.43151974      -0.55017607       0.41260354
Si       5.53150356       1.99062112       4.42052408  T       0.36813462       0.49605298       0.05920259
Si       4.81152324       5.81177352       6.14191177  T      -0.01020380      -0.19160508       0.47412655
Si       0.06423321       9.17281950       3.96670989  T       0.50474901       2.00722529       0.02569174
Si       6.19530109       5.12606318       3.61734665  T       0.25641303      -1.10309482      -0.28903708
Si       5.42000000       9.77000000       2.06000000  F       0.00000000       0.00000000       0.00000000
Si       8.44318592       7.02157754       2.74937628  T       0.16251489      -0.17352766      -0.19530012
Si       3.68191693       4.27575824       9.91553293  T      -1.33335144       0.37050228      -0.72836801
Si       2.25498691       1.62533816       8.96178625  T      -0.97080074       0.28013941       0.02795662
Si       0.50135108       2.81438988       6.99351555  T       1.34565090      -0.49414034       1.13455914
Si       5.05033351       1.22903416       7.47203868  T       1.36803260      -0.21938275       0.03034378
Si       6.56902373       3.46684185       9.07613080  T       0.10529867      -0.13546508       1.06017015
Si       7.88187007       0.95580982      10.46876779  T      -1.49748139       0.19941540      -0.25322313
Si       3.53451260       8.21352063      10.42033237  T      -0.46994355      -0.61480219      -0.28147619
Si       2.95810098       6.89011974       8.02420885  T       0.14257543      -0.38039774       0.26058969
Si       0.90739363       6.41467733      11.02004467  T      -0.17470328      -0.88359009      -0.38019194
Si       0.29589550       5.78234420       7.95055863  T      -0.12375186      -0.08478149       0.49105336
Si       5.88754779       7.06242237      11.61251404  T      -0.03932895       0.12967794       0.78370890
Si       7.41530122       6.09440654       7.78128810  T      -0.11921960       0.13498397       0.18794217
Si       7.36707417       9.28552994       8.03595002  T      -0.62785510       0.17320947      -0.27820720
Si       7.93000000       1.02000000       0.50000000  F       0.00000000       0.00000000       0.00000000
Si       0.91000000       6.44000000       0.98000000  F       0.00000000       0.00000000       0.00000000
Si       5.91000000       7.08000000       1.49000000  F       0.00000000       0.00000000       0.00000000
C        5.02949259       4.99669932      23.39439825  T      -0.30840174      -0.16048922     -13.25092236
F        5.78060173       6.05993330      23.40507901  T       0.15219571       0.13893875     -20.79344006
F        5.77924721       3.94824087      23.40778881  T       0.07934717       0.01164791     -20.73565049
153
Lattice="10.0 0.0 0.0 0.0 10.0 0.0 0.0 0.0 43.74" Properties=species:S:1:pos:R:3:move_mask:L:1:momenta:R:3 etch=trj_CF2_30eV_case1 idx=0 index=0 source=trj_CF2_30eV_case1/0000/OUTCAR converged=T time_fs=32.0 pbc="T T T"
O        2.18191254       4.63776254      13.88387764  T      -0.28967447      -0.13628955       0.17583879
O        1.44447811       2.45594120      12.33119020  T      -0.40895436       0.04549135      -1.36517315
O        3.83277916       2.57566835      14.27099157  T      -0.44975718      -0.49368247       0.20647577
O        3.72730223       4.51070785      16.11777715  T      -0.62872967      -0.72888748       0.20502637
O        1.75717705       2.89662433      15.86989665  T       0.53379155      -0.15440971       0.07016009
O        5.04456119       1.71564655      16.00571673  T      -0.09993818       0.38985549       0.02335294
O        5.04876298       0.94635471      13.29796580  T      -0.83300159       0.85130961       0.45022977
O        6.14910438       3.62407128      14.04297445  T      -0.11336758       0.02255451      -0.15894996
O        7.11333507       1.46324114      14.73768891  T       0.86378041       0.82937598       0.63414565
O        8.97717842       2.32275046      16.42331194  T      -0.89160891       0.59997078       0.77959845
O        9.63533922       0.42485456      14.79480925  T       0.51813147       0.61491139       0.79891859
O        0.92010949       9.76964503      12.60233164  T      -0.21445492       0.40397973      -0.21098700
O        1.11160814       8.18591513      14.66688237  T      -0.08335169      -1.00767831       0.82654077
O        9.99699236       6.91570571      12.23982180  T       0.70532473      -0.72406232       1.20131215
O        5.31313862       6.12250056      14.62428649  T       1.05078266      -1.10324144       0.54168529
O        5.64852191       5.52801946      12.11384323  T      -0.04756540      -0.88070904      -0.69820728
O        7.73179213       5.84631192      13.62329689  T      -0.41053172       0.34144632      -0.44564034
O        5.59190767       8.24066475      12.67968331  T       0.04045002       0.10494891       1.52710364
O        8.62257594       8.36067137      13.61064434  T      -0.03333448       0.01155834      -0.36643961
O        2.43767828       5.13095401      21.47397260  T       0.04775331      -0.67521234      -0.61391605
O        0.22603498       6.13672865      22.69915115  T       0.58291132      -0.54296420      -1.34360323
O        1.88591972       0.20553329      20.07575232  T       0.28488526       0.78374119       0.48300864
O        2.28343102       2.85839922      19.93850468  T       1.10687614      -0.97604368      -0.00313530
O        3.45812666       1.30007948      18.20563639  T       0.53162357       0.26782013      -0.48176584
O        0.81772404       1.60607183      18.05776331  T      -0.71397644       0.34497808       0.30080110
O        0.39523685       4.05853876      17.79367817  T      -0.37686163       0.22850696       0.45659072
O        9.08695878       1.38488072      21.44277552  T      -0.21200759       0.38641716       0.05864029
O        5.45612116       3.04499765      18.23941837  T       0.63793313       0.07103877      -0.61982728
O        4.67862247       3.92572577      20.65644913  T       0.47891390      -0.24635295       0.51717684
O        7.06776610       2.74129686      20.34197995  T       0.07683245       0.33567444       0.68512292
O        6.46703098       0.50007635      21.48923184  T       0.80958714       0.14676198       0.61906570
O        6.60849031       5.23572843      19.37417610  T      -0.20496522      -0.06169145      -0.04151252
O        7.92892964       9.81554521      16.75702930  T       0.02528271       0.42773557       0.35086072
O        3.83655790       6.96606680      16.83128262  T      -0.04891083      -0.50404059      -0.23259103
O        3.81517484       9.38602012      21.37988063  T       0.43011806      -0.29114832      -0.69341046
O        3.25308269       8.00552286      19.12418302  T       0.36696485       0.26831314       0.06041442
O        1.29807892       6.64574896      17.75933755  T       0.45362313      -0.34385369       0.80350131
O        3.20870143       5.28948410      18.88817201  T       0.16963143       0.00050395       0.71315306
O        0.19934694       5.57859332      19.99588086  T      -1.25238535       0.43695723      -0.53004062
O        1.52875845       7.76824101      21.15248643  T       0.06635893       0.06758086       0.75932748
O        4.69443013       8.38565129      21.99364757  T      -1.40326676      -1.21769636       0.35838096
O        8.05353371       0.20452485      19.35798916  T       0.40278343       0.12815817      -0.12292781
O        6.87312263       8.79863252      23.68291657  T      -0.40257843      -0.66663723      -0.25316984
O        6.18177053       5.80712335      16.89898374  T      -0.36521213       0.20058289       0.26001052
O        5.72776249       0.22211851      18.21760342  T      -0.37166008      -0.38339361       0.05499674
O        8.67967670       6.05927121      17.92182845  T      -0.09691479       0.52353729       0.02671003
O        6.94740738       7.86185533      18.40127674  T      -0.44792738      -0.06747406       0.16310716
O        2.06870569       4.64385675       3.85385717  T      -0.79673116      -0.82090432       0.20161470
O        1.53980900       2.48778435       2.20599231  T       0.68533564       0.13820002      -2.70492303
O        3.87104325       2.68148497       4.16312795  T      -0.58797071       0.10390983      -0.08295414
O        3.80658412       4.57158460       6.13599818  T       0.60096731      -0.25341344      -0.29137531
O        1.63859802       2.95455114       5.79470494  T      -0.38998934       0.42888262      -0.05158453
O        4.91143629       1.32460350       5.88858076  T       0.55948446       0.22204088      -0.00481687
O        5.20792397       0.91138154       3.17431942  T       0.28126442       0.59648838      -0.41960391
O        6.18649435       3.58504697       4.04253725  T       0.14806239      -0.40998663      -0.47394473
O        7.09886781       1.55250925       4.81097226  T       1.01149505       1.31760117       1.09583365
O        9.06782969       2.29408726       6.36659291  T      -0.50951828      -0.55953118       0.71545520
O        9.65317830       0.59182579       4.63185723  T       0.19800965       1.03019552      -0.80743077
O        1.00184200       9.72356862       2.50486029  T       0.74423871      -0.44236856      -0.42507906
O        1.13415905       8.12627555       4.64170569  T       0.39772470      -1.68212364       0.82637872
O        9.87000000       6.98000000       2.02000000  F       0.00000000       0.00000000       0.00000000
O        5.31392204       6.04531814       4.61788281  T       1.05066414      -0.58757317       0.24026786
O        5.59000000       5.63000000       2.17000000  F       0.00000000       0.00000000       0.00000000
O        7.73056755       5.81671680       3.59420199  T      -0.21906660      -0.06855606      -0.34452794
O        5.58451664       8.23476422       2.50645551  T      -0.34197996      -0.54744806       0.16583549
O        8.65306329       8.41949107       3.57660150  T       0.43272356       0.61021020      -0.15678079
O        3.48361066       4.14215655      11.53302827  T       0.14359379      -0.31373626       0.59848644
O        1.11375559       4.86032457      11.39889287  T      -0.23024396      -0.02155420       0.41262685
O        1.76137451       0.87884137      10.29243686  T       0.28644314      -0.43742625      -0.80722692
O        2.70292475       3.14140718       9.26953174  T      -0.60336382       0.62226466      -0.42798614
O        3.64884221       1.04042303       8.23827947  T       0.26341144       0.62778326       0.69083319
O        0.95017775       1.60579883       7.97466279  T      -0.69672837      -0.01202499       0.21909399
O        0.44969468       4.18521346       7.84135344  T       0.20496061      -0.33465842      -0.58764516
O        9.27813444       1.30641010      11.29035682  T      -0.09217072      -0.30096065      -0.85977297
O        6.00932120       2.53542846       7.82406991  T       0.47831013       0.01489480       0.52509473
O        5.26353128       4.08004781       9.81441698  T       0.23087950       0.10900080       0.64011993
O        7.43488466       2.46630484      10.01917127  T       0.39565017       0.21005373      -0.41830517
O        6.73112594       0.23028304      11.27583811  T      -0.92919703       0.35431553       0.11954660
O        7.46319174       4.81527680       8.78018316  T      -0.25555149      -0.14937079      -1.28277216
O        8.02675467       9.82866366       6.64651201  T      -0.23207898       0.52907908       0.46129890
O        4.04401513       7.09826279       6.87214941  T      -0.08815215       0.14707364      -0.01543085
O        4.07034421       9.61365947      11.14205961  T       0.71882609       0.54467278      -0.60603216
O        3.03477798       8.28894153       8.86419858  T      -0.34210883      -0.18727573       0.58783812
O        1.54778274       6.58886250       7.27161774  T      -0.02240309       0.01092520      -2.57071552
O        3.27411136       5.67700383       9.09655631  T      -0.74722473       0.18342515       0.59513160
O        0.14172564       6.32589441       9.51129091  T       0.60987387      -1.33132159       0.02940023
O        2.32814503       7.38479516      11.15850043  T       0.32300505      -0.11581819       0.37021029
O        4.95316413       7.31849387      10.39279846  T      -0.19985622      -0.92569950       0.93206327
O        8.28083137       0.01977033       9.22362021  T       1.10215522      -0.65709012       0.39218889
O        7.49983696       7.17080829      11.29290880  T       0.25390620      -0.36194335       0.25185398
O        6.23001392       5.53744246       6.84493921  T       0.24431580       0.39910732      -0.35551802
O        5.83348837       9.86163068       7.96645872  T       0.60992437      -0.11750845      -0.24950665
O        8.95587204       6.12311484       7.16612995  T       0.44669501       0.77411722      -0.65564078
O        7.16936882       7.65461039       8.20135907  T      -0.58704215      -0.20984378       0.33887907
O        3.55000000       4.18000000       1.53000000  F       0.00000000       0.00000000       0.00000000
O        1.14000000       4.89000000       1.35000000  F       0.00000000       0.00000000       0.00000000
O        9.29000000       1.31000000       1.44000000  F       0.00000000       0.00000000       0.00000000
O        6.84000000       0.20000000       1.30000000  F       0.00000000       0.00000000       0.00000000
O        3.95000000       9.60000000       1.25000000  F       0.00000000       0.00000000       0.00000000
O        2.28000000       7.42000000       1.08000000  F       0.00000000       0.00000000       0.00000000
O        7.52000000       7.21000000       1.37000000  F       0.00000000       0.00000000       0.00000000
Si       2.08888589       3.97508110      12.37119449  T      -1.21555302       0.60652793       0.94118872
Si       2.90423923       3.65000280      15.01678206  T      -0.26329416       0.57351613      -0.71629192
Si       0.82353387       1.11560179      11.66057868  T      -0.17435308      -0.97129661      -1.62971379
Si       8.34853404       1.01996444      15.63671744  T       0.60510247      -0.36192033       0.93940184
Si       5.55938180       2.08931074      14.45714180  T       0.60904264       0.94050163       0.52746956
Si       4.76495731       5.81089034      16.12639046  T      -0.03240884      -1.30184698       0.21367478
Si       0.02313936       9.18203799      13.86400920  T       0.28743534       0.93880898      -1.03207679
Si       6.20607464       5.15288153      13.62843848  T       0.49817341      -0.15693744       0.43786418
Si       5.35572319       9.85333947      12.18965725  T      -1.05405651       1.67783513       0.48939117
Si       8.40061802       7.02504539      12.66985451  T       0.48282527      -0.27738184      -0.89323021
Si       3.15590082       4.30256831      20.23160764  T       0.62661591      -0.52689385       0.13533117
Si       2.10294838       1.50946668      19.05938043  T       0.08133898       1.30364670       0.18887773
Si       0.48348863       2.71255017      16.88880338  T       0.58621677       1.23611549       0.10783386
Si       4.96727511       1.55760505      17.63412469  T       0.35819291       0.00371346      -0.13571102
Si       5.96216659       3.72106563      19.63559324  T       0.26160770      -0.23168657      -1.74453606
Si       7.69736657       1.24858191      20.55642519  T      -0.08797624      -0.30237838       0.82835266
Si       2.56161966       8.76643990      20.41079360  T       0.05391504       0.70363815       1.38567371
Si       2.87273416       6.73043346      18.15398674  T      -1.27549205       0.32502621      -0.20846556
Si       1.10981367       6.13295876      21.32543431  T       0.16938499       0.12473896       0.02245878
Si       0.14140203       5.55944562      18.37301496  T       0.03772916       0.02580604      -1.00931947
Si       6.09483028       9.26866625      22.46595672  T      -0.33473421       1.88347608      -0.88490245
Si       7.07802864       6.25884108      18.18016667  T      -0.81473549      -0.35068146       0.59945842
Si       7.18595678       9.47396156      18.13109202  T       0.22270465       0.00847649      -1.09191228
Si       2.10000000       3.98000000       2.32000000  F       0.00000000       0.00000000       0.00000000
Si       2.86906982       3.64671105       5.00635556  T      -1.16080123       0.93637379      -0.65353667
Si       0.89000000       1.15000000       1.77000000  F       0.00000000       0.00000000       0.00000000
Si       8.40701271       1.07057498       5.62192598  T       1.31111754      -0.67345728       0.38173078
Si       5.53254537       1.99240684       4.42085038  T       0.22893029       0.52428672       0.12741822
Si       4.81146428       5.81133265       6.14351065  T      -0.02202722      -0.05947881       0.43873080
Si       0.06625661       9.17977058       3.96667309  T       0.65486223       1.96196689      -0.04656213
Si       6.19623690       5.12225814       3.61650860  T       0.27848198      -1.07136991      -0.19102791
Si       5.42000000       9.77000000       2.06000000  F       0.00000000       0.00000000       0.00000000
Si       8.44360508       7.02104565       2.74872909  T       0.07693040      -0.12949327      -0.17395595
Si       3.67715904       4.27710801       9.91294479  T      -1.38336275       0.39989692      -0.74713796
Si       2.25183571       1.62623865       8.96177415  T      -0.82851323       0.23573923      -0.03654970
Si       0.50607234       2.81258961       6.99731944  T       1.34894188      -0.53499376       1.03632160
Si       5.05528173       1.22818349       7.47220900  T       1.45893751      -0.26560314       0.06775387
Si       6.56934373       3.46631986       9.07983029  T       0.07673631      -0.16129992       1.05327290
Si       7.87688029       0.95681638      10.46792992  T      -1.35364604       0.37424043      -0.22672197
Si       3.53299588       8.21139238      10.41937498  T      -0.39423324      -0.60058050      -0.26311995
Si       2.95857833       6.88879924       8.02523574  T       0.12659627      -0.37430776       0.32376718
Si       0.90696906       6.41164822      11.01850500  T      -0.06757867      -0.84667187      -0.49725138
Si       0.29551871       5.78217128       7.95244864  T      -0.08947763      -0.01446515       0.58437142
Si       5.88757273       7.06273289      11.61534192  T       0.05424083       0.04731474       0.83709968
Si       7.41507800       6.09490112       7.78192005  T      -0.00719535       0.14881395       0.17092822
Si       7.36476904       9.28623359       8.03496744  T      -0.68656954       0.22745009      -0.28106090
Si       7.93000000       1.02000000       0.50000000  F       0.00000000       0.00000000       0.00000000
Si       0.91000000       6.44000000       0.98000000  F       0.00000000       0.00000000       0.00000000
Si       5.91000000       7.08000000       1.49000000  F       0.00000000       0.00000000       0.00000000
C        5.02630215       4.99557721      23.28605413  T      -0.46832084      -0.11332462     -13.24512677
F        5.78154835       6.06067050      23.29756283  T       0.21214617       0.14396249     -20.79685790
F        5.77993642       3.94811925      23.30061106  T       0.18617166      -0.05729254     -20.72227949
153
Lattice="10.0 0.0 0.0 0.0 10.0 0.0 0.0 0.0 43.74" Properties=species:S:1:pos:R:3:move_mask:L:1:momenta:R:3 etch=trj_CF2_30eV_case1 idx=0 index=0 source=trj_CF2_30eV_case1/0000/OUTCAR converged=T time_fs=33.0 pbc="T T T"
O        2.18018075       4.63665438      13.88482918  T      -0.27530674      -0.22322078       0.13431672
O        1.44202502       2.45639101      12.32299636  T      -0.39031849       0.10072143      -1.30372128
O        3.82996176       2.57300910      14.27210978  T      -0.46810151      -0.37144051       0.15797012
O        3.72380800       4.50653006      16.11910985  T      -0.50819048      -0.63044172       0.22951075
O        1.75990421       2.89546896      15.87047259  T       0.35366525      -0.22166229       0.11778488
O        5.04403008       1.71790735      16.00655513  T      -0.07244128       0.34663346       0.24860287
O        5.04399117       0.95148203      13.30068030  T      -0.72042682       0.81787715       0.43318954
O        6.14839803       3.62397117      14.04199663  T      -0.11652278      -0.05534116      -0.15945500
O        7.11879324       1.46822844      14.74146635  T       0.91177456       0.79525665       0.59530064
O        8.97175185       2.32643796      16.42791413  T      -0.87306913       0.60140031       0.72011464
O        9.63835990       0.42880816      14.79985442  T       0.46749743       0.66966957       0.84194093
O        0.91865205       9.77211029      12.60115266  T      -0.25946558       0.39862757      -0.17358238
O        1.11103860       8.17972737      14.67195849  T      -0.10446474      -1.00567803       0.82517666
O       10.00094085       6.91128561      12.24714925  T       0.58196308      -0.71613500       1.18298721
O        5.31939459       6.11557451      14.62761889  T       0.98547727      -1.15162010       0.54426862
O        5.64828712       5.52261693      12.10987840  T      -0.02782832      -0.87760387      -0.59130990
O        7.72943410       5.84841188      13.62044872  T      -0.35650432       0.34248150      -0.48179800
O        5.59213937       8.24188797      12.68934610  T       0.03512654       0.29290077       1.61718727
O        8.62232532       8.36092816      13.60835210  T      -0.04710893       0.07293611      -0.38024471
O        2.43785027       5.12690236      21.46997039  T       0.00693539      -0.64360378      -0.68894025
O        0.22960753       6.13333955      22.69087450  T       0.57865359      -0.56112860      -1.34884505
O        1.88767075       0.21040357      20.07852533  T       0.28576478       0.80166271       0.42024823
O        2.29052237       2.85311000      19.93870744  T       1.20331447      -0.74345575       0.07096102
O        3.46150215       1.30172485      18.20250850  T       0.56423930       0.26848178      -0.53539133
O        0.81355604       1.60800935      18.05964929  T      -0.64215047       0.28666250       0.31395258
O        0.39285544       4.06037463      17.79650162  T      -0.39798933       0.36801078       0.46188635
O        9.08562481       1.38729461      21.44306480  T      -0.22178032       0.39986166       0.03611032
O        5.46009682       3.04518753      18.23563581  T       0.65687825      -0.00907525      -0.61262642
O        4.68166648       3.92420438      20.65955715  T       0.51242249      -0.24918525       0.49295541
O        7.06827844       2.74329695      20.34603471  T       0.08950289       0.31531440       0.63483466
O        6.47207242       0.50093773      21.49292658  T       0.83171848       0.13560910       0.58285977
O        6.60713254       5.23515053      19.37405845  T      -0.23736301      -0.12666355       0.00366415
O        7.92926341       9.81836138      16.75876599  T       0.08421688       0.48889648       0.21341975
O        3.83611649       6.96293383      16.83003470  T      -0.09562954      -0.51670701      -0.17354449
O        3.81767826       9.38430049      21.37558172  T       0.38600063      -0.26847259      -0.70578586
O        3.25515386       8.00713955      19.12463065  T       0.30621227       0.25798215       0.08580000
O        1.30052675       6.64344020      17.76439329  T       0.34073481      -0.40768472       0.84133532
O        3.20980343       5.28935108      18.89281318  T       0.18905529      -0.04235539       0.79668442
O        0.19203074       5.58146594      19.99316487  T      -1.12927856       0.49914589      -0.35384302
O        1.52910135       7.76820436      21.15715947  T       0.04641734      -0.07821677       0.76205858
O        4.68612821       8.37832485      21.99593831  T      -1.29807688      -1.16627982       0.38821250
O        8.05588537       0.20534259      19.35718405  T       0.36204583       0.13840506      -0.13907064
O        6.87067863       8.79445512      23.68151579  T      -0.39570770      -0.69260856      -0.20629325
O        6.17971155       5.80820786      16.90080706  T      -0.30530082       0.15214408       0.33412353
O        5.72554490       0.21987218      18.21783774  T      -0.34962393      -0.34824159       0.02102643
O        8.67897209       6.06246059      17.92190044  T      -0.13306571       0.51525721      -0.00362586
O        6.94460911       7.86178861      18.40236101  T      -0.46334562       0.04579859       0.18973656
O        2.06395616       4.63832877       3.85492092  T      -0.75124263      -0.97815995       0.14388539
O        1.54403226       2.48836739       2.18939279  T       0.69068956       0.05183792      -2.70180196
O        3.86729606       2.68229592       4.16272694  T      -0.63225595       0.16021136      -0.04754956
O        3.80966822       4.56944322       6.13392793  T       0.40306368      -0.44366504      -0.38280764
O        1.63614450       2.95716019       5.79452928  T      -0.40862907       0.42061970      -0.00565353
O        4.91483483       1.32608183       5.88813250  T       0.54740358       0.25909234      -0.13997046
O        5.20987713       0.91496475       3.17179764  T       0.35523207       0.57079273      -0.40103807
O        6.18735871       3.58250020       4.03942127  T       0.13323758      -0.42006509      -0.54108590
O        7.10545690       1.56033687       4.81766344  T       1.13169510       1.23204252       1.08226760
O        9.06510503       2.29133930       6.37141395  T      -0.37476528      -0.33450131       0.85628981
O        9.65433822       0.59802109       4.62684288  T       0.18080932       0.98769151      -0.82562242
O        1.00632801       9.72096315       2.50249233  T       0.71673296      -0.40536512      -0.34571444
O        1.13635796       8.11620351       4.64667843  T       0.31578699      -1.59521266       0.79154395
O        9.87000000       6.98000000       2.02000000  F       0.00000000       0.00000000       0.00000000
O        5.32024728       6.04187328       4.61925309  T       1.00843231      -0.53412838       0.20695288
O        5.59000000       5.63000000       2.17000000  F       0.00000000       0.00000000       0.00000000
O        7.72945638       5.81632200       3.59201317  T      -0.14206181      -0.05998155      -0.36835901
O        5.58231184       8.23147322       2.50798479  T      -0.37647085      -0.52190870       0.33229372
O        8.65559171       8.42318304       3.57564701  T       0.39152468       0.59161161      -0.15430882
O        3.48442478       4.14022117      11.53673843  T       0.12001248      -0.31636556       0.60812153
O        1.11235355       4.86011238      11.40143161  T      -0.22689540      -0.04765236       0.41368449
O        1.76294292       0.87596532      10.28780314  T       0.22371611      -0.50022793      -0.70043010
O        2.69927632       3.14549720       9.26692060  T      -0.58630673       0.70825124      -0.42317216
O        3.64997622       1.04442206       8.24269099  T       0.10832118       0.67468476       0.74452434
O        0.94606228       1.60566801       7.97606795  T      -0.64223358      -0.03257601       0.24029691
O        0.45096413       4.18299756       7.83775579  T       0.20811485      -0.38342945      -0.58243273
O        9.27717127       1.30446361      11.28499463  T      -0.22100798      -0.33309822      -0.88641149
O        6.01227753       2.53568212       7.82746579  T       0.48400513       0.06664078       0.58050687
O        5.26494806       4.08061318       9.81820637  T       0.22733098       0.07565033       0.59409108
O        7.43724371       2.46764560      10.01658261  T       0.37345768       0.22595541      -0.42360451
O        6.72487720       0.23228553      11.27704804  T      -1.10391298       0.29944849       0.27290089
O        7.46169437       4.81415319       8.77259892  T      -0.23171016      -0.21810742      -1.18572399
O        8.02558018       9.83187356       6.64908801  T      -0.14989798       0.51528368       0.37718479
O        4.04397996       7.09881611       6.87161593  T       0.07618704       0.03324672      -0.15716748
O        4.07462380       9.61694216      11.13831207  T       0.67367940       0.52267372      -0.61554432
O        3.03261953       8.28786569       8.86784975  T      -0.36136556      -0.16378014       0.59901981
O        1.54755502       6.58885369       7.25597697  T      -0.05059084      -0.01459638      -2.51927196
O        3.26949467       5.67787088       9.10027977  T      -0.75689619       0.10013136       0.61666370
O        0.14578925       6.31782061       9.51179415  T       0.71318399      -1.29756021       0.13478954
O        2.32960391       7.38380040      11.16081604  T       0.15099412      -0.20872951       0.38400635
O        4.95143366       7.31292855      10.39792972  T      -0.36498268      -0.88589488       0.73837287
O        8.28743339       0.01535196       9.22567748  T       1.04584270      -0.78132321       0.27852381
O        7.50158238       7.16860949      11.29461408  T       0.31341077      -0.35378881       0.30199041
O        6.23149303       5.53994326       6.84276899  T       0.23733725       0.41554655      -0.35104643
O        5.83728808       9.86090841       7.96506099  T       0.62482187      -0.11697109      -0.20554045
O        8.95810447       6.12803633       7.16189793  T       0.28029966       0.82852209      -0.72075874
O        7.16584249       7.65345891       8.20347607  T      -0.56142861      -0.16407830       0.35066943
O        3.55000000       4.18000000       1.53000000  F       0.00000000       0.00000000       0.00000000
O        1.14000000       4.89000000       1.35000000  F       0.00000000       0.00000000       0.00000000
O        9.29000000       1.31000000       1.44000000  F       0.00000000       0.00000000       0.00000000
O        6.84000000       0.20000000       1.30000000  F       0.00000000       0.00000000       0.00000000
O        3.95000000       9.60000000       1.25000000  F       0.00000000       0.00000000       0.00000000
O        2.28000000       7.42000000       1.08000000  F       0.00000000       0.00000000       0.00000000
O        7.52000000       7.21000000       1.37000000  F       0.00000000       0.00000000       0.00000000
Si       2.08458652       3.97715918      12.37438082  T      -1.24037455       0.57936514       0.87825481
Si       2.90333585       3.65196250      15.01426899  T      -0.25285864       0.54463109      -0.71969714
Si       0.82311605       1.11219927      11.65471754  T      -0.06519688      -0.97197305      -1.72158747
Si       8.35065039       1.01859105      15.64012007  T       0.60544115      -0.42062667       1.00666056
Si       5.56126424       2.09253941      14.45896980  T       0.46762946       0.90454728       0.51836745
Si       4.76471068       5.80636293      16.12703776  T      -0.10945191      -1.28684610       0.15726165
Si       0.02425721       9.18522485      13.86033727  T       0.35133425       0.88226851      -1.06308791
Si       6.20782231       5.15258394      13.62988438  T       0.50088725      -0.01392967       0.38569752
Si       5.35213541       9.85897316      12.19117630  T      -0.99728168       1.54147542       0.38089465
Si       8.40242711       7.02404392      12.66677972  T       0.55203003      -0.29487895      -0.86251819
Si       3.15783635       4.30056374      20.23196148  T       0.48065584      -0.61928159       0.06673105
Si       2.10322290       1.51390111      19.06007723  T       0.07639180       1.22783041       0.20628742
Si       0.48564645       2.71691271      16.88935279  T       0.64436771       1.25624279       0.20557982
Si       4.96842204       1.55768677      17.63352117  T       0.29809852       0.04224364      -0.20956247
Si       5.96316692       3.72039052      19.62945030  T       0.31101488      -0.15512017      -1.76475934
Si       7.69699600       1.24740665      20.55958069  T      -0.12299179      -0.36813481       0.97312451
Si       2.56191129       8.76899646      20.41555507  T       0.11174907       0.75728924       1.33419421
Si       2.86840083       6.73160532      18.15315609  T      -1.19671092       0.34486972      -0.26404263
Si       1.11030618       6.13343320      21.32542191  T       0.11317121       0.14507171      -0.03369075
Si       0.14163520       5.55957381      18.36930826  T       0.09345896       0.04905069      -1.10705519
Si       6.09357672       9.27526451      22.46270965  T      -0.38290955       1.88265039      -0.96625614
Si       7.07527943       6.25753537      18.18218106  T      -0.75561439      -0.39410879       0.55160749
Si       7.18665444       9.47397920      18.12742749  T       0.17472134       0.00113464      -0.99952252
Si       2.10000000       3.98000000       2.32000000  F       0.00000000       0.00000000       0.00000000
Si       2.86519761       3.65018502       5.00415844  T      -1.05190637       1.04796376      -0.60154890
Si       0.89000000       1.15000000       1.77000000  F       0.00000000       0.00000000       0.00000000
Si       8.41137200       1.06801672       5.62320808  T       1.18042377      -0.78708892       0.35190292
Si       5.53311378       1.99428373       4.42141466  T       0.09780979       0.54816855       0.19498522
Si       4.81137702       5.81135955       6.14497164  T      -0.02666785       0.07454078       0.39507348
Si       0.06882663       9.18651115       3.96638484  T       0.81656973       1.88721027      -0.11821109
Si       6.19724796       5.11857732       3.61600473  T       0.29954029      -1.03201983      -0.09821334
Si       5.42000000       9.77000000       2.06000000  F       0.00000000       0.00000000       0.00000000
Si       8.44372351       7.02067855       2.74816397  T      -0.00913710      -0.07923217      -0.14849560
Si       3.67226454       4.27854661       9.91033354  T      -1.41126927       0.42115599      -0.74138795
Si       2.24920506       1.62699364       8.96152236  T      -0.67380923       0.19725818      -0.10856435
Si       0.51075802       2.81064991       7.00074037  T       1.32582642      -0.57374699       0.91594490
Si       5.06052211       1.22718543       7.47251566  T       1.53464535      -0.30343860       0.10794131
Si       6.56955520       3.46572430       9.08348656  T       0.04331996      -0.17732161       1.03553935
Si       7.87241090       0.95841292      10.46717723  T      -1.20106895       0.53563378      -0.20446170
Si       3.53177115       8.20932868      10.41850929  T      -0.30372851      -0.57804734      -0.22883514
Si       2.95896632       6.88750388       8.02645569  T       0.09215131      -0.36601403       0.37058316
Si       0.90692276       6.40876546      11.01658623  T       0.04125250      -0.80009016      -0.59619115
Si       0.29528011       5.78223926       7.95461403  T      -0.04559292       0.05243643       0.64819691
Si       5.88792858       7.06275249      11.61838934  T       0.14905575      -0.03582896       0.90855881
Si       7.41525627       6.09545279       7.78246997  T       0.10975847       0.16748291       0.14133336
Si       7.36229461       9.28711002       8.03399798  T      -0.72426974       0.27171399      -0.27112374
Si       7.93000000       1.02000000       0.50000000  F       0.00000000       0.00000000       0.00000000
Si       0.91000000       6.44000000       0.98000000  F       0.00000000       0.00000000       0.00000000
Si       5.91000000       7.08000000       1.49000000  F       0.00000000       0.00000000       0.00000000
C        5.02189032       4.99484978      23.17776110  T      -0.60567418      -0.06460799     -13.23830118
F        5.78277825       6.06140151      23.19002674  T       0.26147813       0.13635897     -20.80112550
F        5.78116001       3.94766401      23.19352037  T       0.28541145      -0.11660890     -20.70188640
153
Lattice="10.0 0.0 0.0 0.0 10.0 0.0 0.0 0.0 43.74" Properties=species:S:1:pos:R:3:move_mask:L:1:momenta:R:3 etch=trj_CF2_30eV_case1 idx=0 index=0 source=trj_CF2_30eV_case1/0000/OUTCAR converged=T time_fs=34.0 pbc="T T T"
O        2.17852315       4.63503752      13.88552973  T      -0.26555065      -0.30185327       0.09425174
O        1.43968246       2.45717235      12.31518372  T      -0.37317728       0.15302529      -1.24117787
O        3.82703157       2.57111743      14.27293354  T      -0.48629041      -0.24397061       0.11062742
O        3.72107275       4.50297979      16.12059801  T      -0.38210082      -0.52510877       0.25538266
O        1.76151506       2.89390780      15.87134347  T       0.17108972      -0.28615904       0.16568857
O        5.04367865       1.71990421      16.00875062  T      -0.04131059       0.30408352       0.46410467
O        5.03992620       0.95638651      13.30327633  T      -0.60293475       0.77870152       0.41164326
O        6.14767604       3.62339394      14.04101675  T      -0.11839668      -0.13208678      -0.15981830
O        7.12450417       1.47300670      14.74498785  T       0.94587734       0.76138695       0.55081698
O        8.96648984       2.33013730      16.43216068  T      -0.83790033       0.60394828       0.66393415
O        9.64109808       0.43304159      14.80511862  T       0.42643360       0.70573776       0.86991545
O        0.91693280       9.77453623      12.60019348  T      -0.29962210       0.39139529      -0.13967441
O        1.11030304       8.17358960      14.67699638  T      -0.13723032      -0.99152842       0.81420279
O       10.00415165       6.90690803      12.25431918  T       0.46550360      -0.71036736       1.14974222
O        5.32522287       6.10837426      14.63097369  T       0.91154467      -1.19239340       0.54895688
O        5.64819037       5.51726039      12.10660082  T      -0.00279187      -0.86556832      -0.47483796
O        7.72742487       5.85051536      13.61738516  T      -0.29711081       0.34250505      -0.51569273
O        5.59234053       8.24424922      12.69950379  T       0.03059683       0.47458606       1.68791558
O        8.62200942       8.36157479      13.60597527  T      -0.05466684       0.13838985      -0.39404858
O        2.43775006       5.12306150      21.46552310  T      -0.04084590      -0.60659170      -0.75872309
O        0.23311693       6.12983765      22.68262787  T       0.56220222      -0.57972372      -1.33359308
O        1.88943109       0.21536499      20.08091286  T       0.28790855       0.81332206       0.35761379
O        2.29820632       2.84929937      19.93939127  T       1.29955345      -0.49572147       0.15298059
O        3.46501484       1.30337947      18.19908181  T       0.57594083       0.27084634      -0.57883542
O        0.80985461       1.60959785      18.06162209  T      -0.56218636       0.23150055       0.32903941
O        0.39035963       4.06303806      17.79933567  T      -0.41404133       0.49733608       0.45985599
O        9.08424384       1.38979003      21.44322458  T      -0.22721710       0.41296919       0.01652749
O        5.46418433       3.04488879      18.23189424  T       0.67439763      -0.08785050      -0.60626195
O        4.68490898       3.92266722      20.66247685  T       0.54298478      -0.25138086       0.45547123
O        7.06885930       2.74516295      20.34976657  T       0.09914932       0.29198143       0.58003555
O        6.47723352       0.50175971      21.49637229  T       0.84850338       0.13392191       0.53803802
O        6.60557655       5.23417450      19.37422473  T      -0.26932007      -0.19090262       0.05074319
O        7.92996925       9.82153841      16.75964026  T       0.14600418       0.54482281       0.07097468
O        3.83537710       6.95972068      16.82915420  T      -0.14575808      -0.53009952      -0.11316064
O        3.81992217       9.38272903      21.37122725  T       0.34581888      -0.24291882      -0.71135664
O        3.25682773       8.00868678      19.12523963  T       0.23765476       0.24563380       0.11277753
O        1.30223475       6.64074984      17.76964674  T       0.21324518      -0.46791567       0.86788234
O        3.21101959       5.28898111      18.89793149  T       0.20677760      -0.07631604       0.86818406
O        0.18549480       5.58472476      19.99153851  T      -0.99865494       0.56256743      -0.17630066
O        1.52934148       7.76729772      21.16183360  T       0.03326896      -0.21509541       0.75945266
O        4.67851890       8.37135686      21.99841681  T      -1.17826384      -1.10106689       0.41926559
O        8.05796724       0.20622654      19.35628511  T       0.31501531       0.14979425      -0.15333300
O        6.86824069       8.79014486      23.68034924  T      -0.40078653      -0.70975157      -0.17720597
O        6.17802085       5.80898604      16.90308585  T      -0.24582726       0.10083304       0.40790869
O        5.72348043       0.21784353      18.21785865  T      -0.32185558      -0.31250079      -0.01448490
O        8.67803961       6.06559624      17.92178078  T      -0.17085993       0.50599453      -0.03560327
O        6.94172087       7.86241422      18.40360267  T      -0.47721079       0.15726975       0.21434739
O        2.05947216       4.63186496       3.85561375  T      -0.71040398      -1.12542981       0.08083863
O        1.54829417       2.48842494       2.17282332  T       0.69818267      -0.03240540      -2.69513695
O        3.86328548       2.68345059       4.16254436  T      -0.67352496       0.21565924      -0.01199858
O        3.81153284       4.56614876       6.13130145  T       0.20486669      -0.62768060      -0.47224772
O        1.63358870       2.95971244       5.79463363  T      -0.42295418       0.41051032       0.03929160
O        4.91815595       1.32777951       5.88688000  T       0.53428484       0.29331974      -0.26578375
O        5.21228803       0.91839128       3.16940393  T       0.43030306       0.54556498      -0.37783100
O        6.18812779       3.57988439       4.03589392  T       0.11705621      -0.43250341      -0.60784723
O        7.11272725       1.56763697       4.82424412  T       1.23275058       1.14610818       1.05962150
O        9.06325422       2.28998308       6.37711447  T      -0.22628644      -0.10779452       1.00079929
O        9.65540790       0.60395169       4.62172398  T       0.16851320       0.94408276      -0.84137451
O        1.01063941       9.71860160       2.50062016  T       0.68742965      -0.36288668      -0.26377615
O        1.13801068       8.10672312       4.65140638  T       0.22030742      -1.48984601       0.74691295
O        9.87000000       6.98000000       2.02000000  F       0.00000000       0.00000000       0.00000000
O        5.32629058       6.03876405       4.62043298  T       0.95883910      -0.47831562       0.17829641
O        5.59000000       5.63000000       2.17000000  F       0.00000000       0.00000000       0.00000000
O        7.72883012       5.81597986       3.58968095  T      -0.06142810      -0.05162608      -0.39109968
O        5.57989244       8.22838107       2.51053322  T      -0.41171813      -0.48312613       0.49741090
O        8.65787771       8.42674761       3.57470538  T       0.35388707       0.56887806      -0.15253554
O        3.48506885       4.13827576      11.54047494  T       0.08837551      -0.31696024       0.60706103
O        1.11096463       4.85973980      11.40396497  T      -0.22608862      -0.07356669       0.41078774
O        1.76411574       0.87269266      10.28385077  T       0.15797055      -0.56632779      -0.58604759
O        2.69571237       3.15008256       9.26432936  T      -0.57603141       0.78314453      -0.42157695
O        3.65020117       1.04870399       8.24740153  T      -0.03175323       0.71971521       0.78777816
O        0.94230874       1.60537879       7.97763037  T      -0.57885643      -0.06354991       0.27031042
O        0.45224521       4.18054655       7.83422143  T       0.20869638      -0.41073429      -0.56693694
O        9.27543127       1.30232024      11.27948003  T      -0.34431878      -0.36507802      -0.90909979
O        6.01525579       2.53623355       7.83119003  T       0.48523964       0.11151839       0.63175129
O        5.26628875       4.08098196       9.82171029  T       0.20611646       0.04501774       0.54721544
O        7.43947712       2.46907113      10.01398395  T       0.35476108       0.23756968      -0.42152738
O        6.71760336       0.23397830      11.27916598  T      -1.26171219       0.25409090       0.41423599
O        7.46035202       4.81258600       8.76564329  T      -0.20501494      -0.29340226      -1.07837304
O        8.02491877       9.83497652       6.65113945  T      -0.06525979       0.49399584       0.29095450
O        4.04494021       7.09867388       6.87023654  T       0.23510353      -0.07909985      -0.29005575
O        4.07860002       9.62005736      11.13449348  T       0.62000102       0.49021299      -0.62910047
O        3.03033705       8.28692377       8.87152751  T      -0.38253262      -0.14375902       0.59640186
O        1.54717452       6.58867605       7.24073446  T      -0.07202286      -0.04388218      -2.44116009
O        3.26481477       5.67824720       9.10411518  T      -0.76789900       0.02404054       0.63130756
O        0.15047467       6.30997341       9.51294545  T       0.81219322      -1.25759326       0.23987392
O        2.32999050       7.38222974      11.16321311  T      -0.02550133      -0.30288709       0.39645522
O        4.94867805       7.30762689      10.40186112  T      -0.53239924      -0.84033635       0.54264942
O        8.29364620       0.01018867       9.22704983  T       0.97535752      -0.89915617       0.16982898
O        7.50367047       7.16646957      11.29659905  T       0.36515635      -0.34276597       0.34278721
O        6.23292642       5.54254484       6.84063289  T       0.22942908       0.43189639      -0.34437496
O        5.84112783       9.86020355       7.96393708  T       0.62263961      -0.11166312      -0.16041750
O        8.95931772       6.13328150       7.15730382  T       0.11587733       0.87935234      -0.77329357
O        7.16247726       7.65260664       8.20566403  T      -0.53461405      -0.11258848       0.36195939
O        3.55000000       4.18000000       1.53000000  F       0.00000000       0.00000000       0.00000000
O        1.14000000       4.89000000       1.35000000  F       0.00000000       0.00000000       0.00000000
O        9.29000000       1.31000000       1.44000000  F       0.00000000       0.00000000       0.00000000
O        6.84000000       0.20000000       1.30000000  F       0.00000000       0.00000000       0.00000000
O        3.95000000       9.60000000       1.25000000  F       0.00000000       0.00000000       0.00000000
O        2.28000000       7.42000000       1.08000000  F       0.00000000       0.00000000       0.00000000
O        7.52000000       7.21000000       1.37000000  F       0.00000000       0.00000000       0.00000000
Si       2.08022475       3.97911975      12.37732290  T      -1.25125329       0.53941242       0.80163469
Si       2.90247227       3.65379811      15.01175563  T      -0.24078585       0.50261015      -0.71594320
Si       0.82307261       1.10881738      11.64853925  T       0.03919391      -0.95938204      -1.81068300
Si       8.35277066       1.01703928      15.64376007  T       0.60722202      -0.46367766       1.07487293
Si       5.56265460       2.09563029      14.46077170  T       0.32780346       0.86151951       0.51285328
Si       4.76418857       5.80189083      16.12749621  T      -0.18935620      -1.27006307       0.10606933
Si       0.02559296       9.18820310      13.85660066  T       0.41160631       0.81991168      -1.06875293
Si       6.20957710       5.15277719      13.63111924  T       0.50246990       0.12276956       0.31781288
Si       5.34874793       9.86411080      12.19233235  T      -0.93986637       1.39480806       0.28222103
Si       8.40448154       7.02298575      12.66383653  T       0.62314256      -0.30959735      -0.81781380
Si       3.15926635       4.29823787      20.23207281  T       0.33776866      -0.71035173      -0.00331354
Si       2.10348804       1.51803225      19.06080484  T       0.07629068       1.13093929       0.20675027
Si       0.48797507       2.72132418      16.89023748  T       0.68343083       1.26413815       0.29973492
Si       4.96936373       1.55789556      17.63265950  T       0.24113335       0.07620755      -0.28278528
Si       5.96434587       3.71997467      19.62326804  T       0.36385841      -0.08393928      -1.76736087
Si       7.69651171       1.24601640      20.56321381  T      -0.15299890      -0.42513279       1.10111554
Si       2.56239346       8.77173003      20.42011029  T       0.16238877       0.80447075       1.26811063
Si       2.86439559       6.73284378      18.15215530  T      -1.08834011       0.36285712      -0.30543871
Si       1.11061171       6.13396462      21.32517473  T       0.06278890       0.15725583      -0.11169672
Si       0.14204229       5.55979861      18.36529282  T       0.13685808       0.08132856      -1.18497593
Si       6.09214867       9.28179426      22.45923248  T      -0.43401751       1.84427747      -1.01593908
Si       7.07275279       6.25609612      18.18402140  T      -0.68766321      -0.42673043       0.50032213
Si       7.18717098       9.47396792      18.12412192  T       0.11946619      -0.00763974      -0.88745389
Si       2.10000000       3.98000000       2.32000000  F       0.00000000       0.00000000       0.00000000
Si       2.86171925       3.65402726       5.00215577  T      -0.93615948       1.14650590      -0.54221614
Si       0.89000000       1.15000000       1.77000000  F       0.00000000       0.00000000       0.00000000
Si       8.41526618       1.06508644       5.62439195  T       1.04646117      -0.88506460       0.32611105
Si       5.53324038       1.99623649       4.42221178  T      -0.02342270       0.56769318       0.26024050
Si       4.81128376       5.81184824       6.14626408  T      -0.02579730       0.20324536       0.34219239
Si       0.07197683       9.19294163       3.96584632  T       0.98590953       1.78507137      -0.18974461
Si       6.19833167       5.11504774       3.61581443  T       0.32013275      -0.98485799      -0.01195446
Si       5.42000000       9.77000000       2.06000000  F       0.00000000       0.00000000       0.00000000
Si       8.44354252       7.02049853       2.74769406  T      -0.09396221      -0.02246437      -0.11965397
Si       3.66731220       4.28004437       9.90778642  T      -1.41638314       0.43362312      -0.71039530
Si       2.24713197       1.62762653       8.96100989  T      -0.51038780       0.16613154      -0.18500435
Si       0.51532083       2.80857925       7.00370484  T       1.27926316      -0.60977708       0.77582076
Si       5.06599754       1.22607146       7.47296487  T       1.59298933      -0.33165807       0.14887974
Si       6.56964193       3.46509129       9.08706268  T       0.00549264      -0.18256839       1.00758256
Si       7.86848175       0.96054206      10.46649559  T      -1.04581195       0.67778455      -0.18597702
Si       3.53088285       8.20735696      10.41779261  T      -0.20268214      -0.54819511      -0.17780464
Si       2.95920682       6.88624146       8.02780801  T       0.04297720      -0.35545774       0.39916814
Si       0.90725766       6.40606098      11.01435872  T       0.15013888      -0.74495150      -0.67313723
Si       0.29520539       5.78253144       7.95694901  T       0.00343377       0.11329775       0.68117858
Si       5.88861169       7.06248620      11.62171242  T       0.24050052      -0.11539230       0.99385044
Si       7.41584771       6.09607690       7.78289686  T       0.22850798       0.19002582       0.10094550
Si       7.35972790       9.28812180       8.03308244  T      -0.73901265       0.30462394      -0.25066174
Si       7.93000000       1.02000000       0.50000000  F       0.00000000       0.00000000       0.00000000
Si       0.91000000       6.44000000       0.98000000  F       0.00000000       0.00000000       0.00000000
Si       5.91000000       7.08000000       1.49000000  F       0.00000000       0.00000000       0.00000000
C        5.01647154       4.99451571      23.06953313  T      -0.71338207      -0.01775130     -13.22878571
F        5.78423272       6.06205912      23.08246633  T       0.29877531       0.11556224     -20.80633482
F        5.78287060       3.94693543      23.08655589  T       0.37410164      -0.16237565     -20.67296734
153
Lattice="10.0 0.0 0.0 0.0 10.0 0.0 0.0 0.0 43.74" Properties=species:S:1:pos:R:3:move_mask:L:1:momenta:R:3 etch=trj_CF2_30eV_case1 idx=0 index=0 source=trj_CF2_30eV_case1/0000/OUTCAR converged=T time_fs=35.0 pbc="T T T"
O        2.17691086       4.63296510      13.88599104  T      -0.26056500      -0.37151815       0.05654520
O        1.43743765       2.45825990      12.30775608  T      -0.35867378       0.20005875      -1.17846805
O        3.82399312       2.57001987      14.27347105  T      -0.50313197      -0.11310687       0.06477179
O        3.71912041       4.50008875      16.12224540  T      -0.25378132      -0.41635344       0.28108432
O        1.76200978       2.89196484      15.87250217  T      -0.00902867      -0.34562833       0.21102630
O        5.04353064       1.72164459      16.01222201  T      -0.00610788       0.26327596       0.66298359
O        5.03659504       0.96103274      13.30572648  T      -0.48159403       0.73376438       0.38570323
O        6.14694739       3.62235941      14.04003248  T      -0.11862228      -0.20355548      -0.16107476
O        7.13037919       1.47757902      14.74821974  T       0.96509500       0.72824364       0.50104141
O        8.96149557       2.33385713      16.43607474  T      -0.78586096       0.60815844       0.61194886
O        9.64361736       0.43743564      14.81050441  T       0.39640341       0.72184378       0.88134131
O        0.91498341       9.77691500      12.59942798  T      -0.33433414       0.38349185      -0.11075984
O        1.10933336       8.16757402      14.68193902  T      -0.18050495      -0.96603611       0.79427754
O       10.00667452       6.90255738      12.26123641  T       0.35823881      -0.70747291       1.10053593
O        5.33057204       6.10094912      14.63436329  T       0.82952480      -1.22474312       0.55555579
O        5.64826093       5.51200709      12.10406098  T       0.02646348      -0.84384970      -0.35149424
O        7.72579394       5.85261465      13.61412197  T      -0.23349711       0.34101910      -0.54671278
O        5.59251741       8.24769323      12.71003151  T       0.02727902       0.64471615       1.73744404
O        8.62166519       8.36263353      13.60351295  T      -0.05643175       0.20699666      -0.40815108
O        2.43733630       5.11946360      21.46066550  T      -0.09508607      -0.56454818      -0.82248071
O        0.23648640       6.12622005      22.67454027  T       0.53300452      -0.59883760      -1.29692424
O        1.89120829       0.22037749      20.08291850  T       0.29123569       0.81822800       0.29600970
O        2.30647552       2.84703750      19.94059449  T       1.39356884      -0.24044185       0.23945545
O        3.46853099       1.30505399      18.19542280  T       0.56515341       0.27496593      -0.61088294
O        0.80666636       1.61086017      18.06369287  T      -0.47519596       0.18060299       0.34582697
O        0.38778188       4.06645456      17.80213242  T      -0.42462340       0.61264169       0.44958630
O        9.08284395       1.39236481      21.44327402  T      -0.22787962       0.42571518       0.00021258
O        5.46837527       3.04411413      18.22819202  T       0.69057818      -0.16384569      -0.59958867
O        4.68832157       3.92111980      20.66511946  T       0.56711214      -0.25246693       0.40201924
O        7.06949012       2.74687648      20.35314894  T       0.10578190       0.26565305       0.52099632
O        6.48248021       0.50259971      21.49951803  T       0.85949432       0.14135026       0.48532294
O        6.60382846       5.23281287      19.37468323  T      -0.29974746      -0.25176969       0.09871694
O        7.93105646       9.82503635      16.75963911  T       0.20791710       0.59293730      -0.07062055
O        3.83432247       6.95642394      16.82864517  T      -0.19809718      -0.54387033      -0.05277847
O        3.82193440       9.38132276      21.36686133  T       0.31073113      -0.21470502      -0.70939809
O        3.25805832       8.01015144      19.12601650  T       0.16193990       0.23105683       0.14029558
O        1.30312448       6.63770415      17.77502848  T       0.07498772      -0.52316388       0.88315395
O        3.21233897       5.28843448      18.90344697  T       0.22267469      -0.09960629       0.92575132
O        0.17977807       5.58837413      19.99099074  T      -0.86284146       0.62616906      -0.00358360
O        1.52952661       7.76558741      21.16647247  T       0.02883159      -0.33936703       0.75038047
O        4.67168215       8.36482972      22.00108621  T      -1.04697062      -1.02280244       0.45015514
O        8.05974264       0.20718469      19.35530630  T       0.26233652       0.16261213      -0.16497532
O        6.86573329       8.78575820      23.67930340  T      -0.41835462      -0.71742308      -0.16706990
O        6.17668627       5.80944090      16.90581053  T      -0.18985297       0.04686099       0.47894013
O        5.72160281       0.21603601      18.21765733  T      -0.28886851      -0.27620574      -0.05132201
O        8.67687379       6.06867145      17.92146141  T      -0.20880450       0.49552298      -0.06854926
O        6.93875261       7.86370841      18.40498889  T      -0.48939466       0.26284591       0.23682431
O        2.05522237       4.62453178       3.85590405  T      -0.67510638      -1.26107559       0.01284392
O        1.55261199       2.48797934       2.15630560  T       0.70913876      -0.11151772      -2.68494440
O        3.85903406       2.68494010       4.16257786  T      -0.71046825       0.26905809       0.02264631
O        3.81219478       4.56176143       6.12813627  T       0.01237205      -0.79838594      -0.55796882
O        1.63096275       2.96219868       5.79500646  T      -0.43115973       0.39924112       0.08148721
O        4.92139359       1.32967638       5.88489683  T       0.52022552       0.32381549      -0.37707045
O        5.21516222       0.92166579       3.16716749  T       0.50607178       0.52136065      -0.34978748
O        6.18879381       3.57718486       4.03195919  T       0.09970209      -0.44731582      -0.67369501
O        7.12055122       1.57441280       4.83065540  T       1.31154179       1.06157683       1.02694284
O        9.06233823       2.29000238       6.38369823  T      -0.07163926       0.11200822       1.14288776
O        9.65641572       0.60961250       4.61651731  T       0.16054666       0.89988688      -0.85411218
O        1.01476640       9.71651786       2.49925621  T       0.65674250      -0.31486610      -0.18036270
O        1.13904214       8.09794028       4.65583384  T       0.11387260      -1.36842942       0.69392119
O        9.87000000       6.98000000       2.02000000  F       0.00000000       0.00000000       0.00000000
O        5.33200724       6.03600368       4.62145159  T       0.90208200      -0.42057204       0.15441314
O        5.59000000       5.63000000       2.17000000  F       0.00000000       0.00000000       0.00000000
O        7.72870569       5.81568537       3.58721431  T       0.02107778      -0.04467864      -0.41201008
O        5.57725671       8.22556128       2.51408564  T      -0.44674875      -0.43370598       0.65891505
O        8.65994520       8.43016216       3.57377319  T       0.32044655       0.54290694      -0.15118687
O        3.48549638       4.13633349      11.54417224  T       0.04966829      -0.31530924       0.59539013
O        1.10957138       4.85921177      11.40646736  T      -0.22840262      -0.09806872       0.40353535
O        1.76488109       0.86900819      10.28061325  T       0.09140735      -0.63404728      -0.46840818
O        2.69218856       3.15508784       9.26173726  T      -0.57334365       0.84466688      -0.42348510
O        3.64962432       1.05325371       8.25233986  T      -0.15206007       0.76170569       0.81835083
O        0.93897086       1.60486889       7.97940339  T      -0.50692765      -0.10428886       0.30877790
O        0.45352138       4.17799946       7.83081462  T       0.20648747      -0.41444571      -0.54086504
O        9.27296295       1.29998130      11.27384246  T      -0.45742369      -0.39678323      -0.92617494
O        6.01822522       2.53703466       7.83521204  T       0.48094041       0.14764743       0.67721329
O        5.26744598       4.08117156       9.82492490  T       0.16772082       0.01730180       0.49991623
O        7.44160680       2.47055377      10.01142096  T       0.33966935       0.24451549      -0.41198705
O        6.70943058       0.23543010      11.28210081  T      -1.39552199       0.22149921       0.53804865
O        7.45918277       4.81054309       8.75937303  T      -0.17529161      -0.37252852      -0.96289991
O        8.02478031       9.83792258       6.65266206  T       0.02014378       0.46394470       0.20544226
O        4.04684647       7.09785180       6.86808043  T       0.38342813      -0.18781316      -0.40935308
O        4.08222072       9.62294273      11.13058051  T       0.55791410       0.44795127      -0.64616902
O        3.02791865       8.28609277       8.87514607  T      -0.40563288      -0.12773378       0.57974720
O        1.54668474       6.58830949       7.22605059  T      -0.08612324      -0.07596368      -2.33755178
O        3.26006222       5.67818450       9.10801567  T      -0.78062417      -0.04246544       0.63761482
O        0.15575160       6.30238940       9.51473226  T       0.90563315      -1.21192234       0.34112547
O        2.32929041       7.38008427      11.16567864  T      -0.20218942      -0.39544656       0.40602463
O        4.94490631       7.30261557      10.40460395  T      -0.69458697      -0.79184398       0.35262411
O        8.29938289       0.00432900       9.22777949  T       0.89078676      -1.00768020       0.06978572
O        7.50604766       7.16440606      11.29880371  T       0.40725855      -0.32890734       0.37343507
O        6.23430860       5.54524595       6.83854485  T       0.22067849       0.44791910      -0.33536333
O        5.84489802       9.85954792       7.96309231  T       0.60196002      -0.10082528      -0.11471421
O        8.95954261       6.13882521       7.15242948  T      -0.04062004       0.92560325      -0.81181744
O        7.15927966       7.65208502       8.20791929  T      -0.50687201      -0.05662530       0.37255499
O        3.55000000       4.18000000       1.53000000  F       0.00000000       0.00000000       0.00000000
O        1.14000000       4.89000000       1.35000000  F       0.00000000       0.00000000       0.00000000
O        9.29000000       1.31000000       1.44000000  F       0.00000000       0.00000000       0.00000000
O        6.84000000       0.20000000       1.30000000  F       0.00000000       0.00000000       0.00000000
O        3.95000000       9.60000000       1.25000000  F       0.00000000       0.00000000       0.00000000
O        2.28000000       7.42000000       1.08000000  F       0.00000000       0.00000000       0.00000000
O        7.52000000       7.21000000       1.37000000  F       0.00000000       0.00000000       0.00000000
Si       2.07584903       3.98091892      12.37997409  T      -1.24841955       0.48717900       0.71207750
Si       2.90165192       3.65546439      15.00927172  T      -0.22837932       0.44792483      -0.70237285
Si       0.82338199       1.10550340      11.64205721  T       0.13606551      -0.93309746      -1.89487493
Si       8.35489884       1.01536612      15.64763811  T       0.60986744      -0.48982235       1.14244574
Si       5.56355970       2.09855702      14.46256277  T       0.19024108       0.81054612       0.51242298
Si       4.76338638       5.79748167      16.12778755  T      -0.26904463      -1.25071074       0.06204582
Si       0.02713010       9.19095588      13.85289045  T       0.46614152       0.75366534      -1.04784159
Si       6.21133710       5.15343028      13.63209405  T       0.50406629       0.24811912       0.23765223
Si       5.34555973       9.86872209      12.19316340  T      -0.88367456       1.24106541       0.19540328
Si       8.40678826       7.02188257      12.66107516  T       0.69633461      -0.32040434      -0.75846186
Si       3.16020342       4.29559809      20.23193682  T       0.19887512      -0.79844555      -0.07472685
Si       2.10376356       1.52179367      19.06150683  T       0.08259474       1.01730351       0.19204860
Si       0.49040384       2.72574227      16.89144657  T       0.70129855       1.26009554       0.39126825
Si       4.97011377       1.55821385      17.63154697  T       0.18874488       0.10469442      -0.35246260
Si       5.96571612       3.71979532      19.61710681  T       0.42037963      -0.02011671      -1.75244664
Si       7.69593144       1.24444337      20.56726270  T      -0.17781939      -0.47251635       1.21058384
Si       2.56303672       8.77461456      20.42441177  T       0.20346398       0.84328880       1.18949850
Si       2.86081696       6.73414006      18.15103660  T      -0.95343784       0.37770218      -0.33125383
Si       1.11075334       6.13452404      21.32461756  T       0.01965892       0.16107182      -0.21074396
Si       0.14257717       5.56015404      18.36104595  T       0.16622214       0.12397097      -1.23862330
Si       6.09054000       9.28812449      22.45564002  T      -0.48586975       1.76871520      -1.03199435
Si       7.07047766       6.25456390      18.18567933  T      -0.61202016      -0.44702224       0.44768949
Si       7.18748428       9.47392668      18.12123627  T       0.05889841      -0.01556903      -0.76029828
Si       2.10000000       3.98000000       2.32000000  F       0.00000000       0.00000000       0.00000000
Si       2.85865335       3.65818799       5.00037435  T      -0.81661415       1.22968272      -0.47493750
Si       0.89000000       1.15000000       1.77000000  F       0.00000000       0.00000000       0.00000000
Si       8.41869597       1.06184923       5.62549671  T       0.91613041      -0.96156047       0.30714649
Si       5.53296214       1.99825015       4.42323060  T      -0.13351172       0.58304047       0.32143620
Si       4.81120066       5.81276776       6.14735438  T      -0.02117499       0.31963514       0.27936212
Si       0.07572727       9.19897039       3.96505749  T       1.15913055       1.65797724      -0.26135656
Si       6.19948736       5.11169684       3.61591267  T       0.34079929      -0.92985308       0.06659208
Si       5.42000000       9.77000000       2.06000000  F       0.00000000       0.00000000       0.00000000
Si       8.44306951       7.02052876       2.74732982  T      -0.17580076       0.04102062      -0.08822680
Si       3.66238178       4.28156967       9.90539206  T      -1.39882593       0.43684175      -0.65407110
Si       2.24564027       1.62816474       8.96022719  T      -0.34206832       0.14322520      -0.26241962
Si       0.51968428       2.80638805       7.00614899  T       1.21243800      -0.64259318       0.61905350
Si       5.07164425       1.22487729       7.47355564  T       1.63234196      -0.34908491       0.18851461
Si       6.56958927       3.46445973       9.09052441  T      -0.03630724      -0.17640607       0.97033291
Si       7.86509227       0.96312755      10.46587287  T      -0.89345704       0.79577386      -0.17065309
Si       3.53035984       8.20550074      10.41728411  T      -0.09574587      -0.51224764      -0.10981664
Si       2.95925507       6.88501993       8.02922657  T      -0.01706656      -0.34264055       0.40830544
Si       0.90797170       6.40356241      11.01190520  T       0.25786511      -0.68261570      -0.72491335
Si       0.29530527       5.78302291       7.95934463  T       0.05353445       0.16606802       0.68288937
Si       5.88960211       7.06195354      11.62535090  T       0.32394347      -0.18746363       1.08791330
Si       7.41685339       6.09678493       7.78316657  T       0.34608924       0.21522109       0.05186968
Si       7.35715201       9.28922737       8.03225362  T      -0.72928343       0.32520359      -0.22195548
Si       7.93000000       1.02000000       0.50000000  F       0.00000000       0.00000000       0.00000000
Si       0.91000000       6.44000000       0.98000000  F       0.00000000       0.00000000       0.00000000
Si       5.91000000       7.08000000       1.49000000  F       0.00000000       0.00000000       0.00000000
C        5.01031439       4.99454520      22.96139828  T      -0.78504057       0.02357594     -13.21556250
F        5.78584640       6.06257593      22.97487495  T       0.32287461       0.08204874     -20.81337329
F        5.78500860       3.94601136      22.97976988  T       0.45060231      -0.19184310     -20.63200396
153
Lattice="10.0 0.0 0.0 0.0 10.0 0.0 0.0 0.0 43.74" Properties=species:S:1:pos:R:3:move_mask:L:1:momenta:R:3 etch=trj_CF2_30eV_case1 idx=0 index=0 source=trj_CF2_30eV_case1/0000/OUTCAR converged=T time_fs=36.0 pbc="T T T"
O        2.17531439       4.63049367      13.88623018  T      -0.26039511      -0.43177608       0.02202741
O        1.43527132       2.45961480      12.30071187  T      -0.34777704       0.23975972      -1.11642162
O        3.82085858       2.56973136      14.27373216  T      -0.51734222       0.01920777       0.02062125
O        3.71795440       4.49786717      16.12404615  T      -0.12656905      -0.30767770       0.30505224
O        1.76141772       2.88967739      15.87392473  T      -0.18211677      -0.39802116       0.25118644
O        5.04361205       1.72314220      16.01684725  T       0.03346505       0.22516822       0.83882700
O        5.03401788       0.96538573      13.30800456  T      -0.35752803       0.68322308       0.35566821
O        6.14622327       3.62091196      14.03903534  T      -0.11686278      -0.26592254      -0.16417591
O        7.13632539       1.48195089      14.75113115  T       0.96905547       0.69613075       0.44655637
O        8.95687194       2.33760876      16.43968418  T      -0.71727072       0.61433984       0.56480090
O        9.64598842       0.44186621      14.81590762  T       0.37825408       0.71766009       0.87554156
O        0.91283879       9.77924616      12.59882129  T      -0.36314751       0.37609695      -0.08817239
O        1.10806876       8.16174752      14.68673364  T      -0.23307423      -0.93011867       0.76612973
O       10.00857149       6.89821449      12.26780143  T       0.26188274      -0.70789574       1.03499954
O        5.33539458       6.09335288      14.63779843  T       0.74014581      -1.24803138       0.56370882
O        5.64852124       5.50691828      12.10229284  T       0.05880160      -0.81190852      -0.22394588
O        7.72456347       5.85469887      13.61067877  T      -0.16688943       0.33749061      -0.57420200
O        5.59267831       8.25213527      12.72079518  T       0.02542444       0.79898574       1.76463422
O        8.62132656       8.36412062      13.60096237  T      -0.05295265       0.27772852      -0.42285304
O        2.43657153       5.11613795      21.45543638  T      -0.15502694      -0.51801982      -0.87965276
O        0.23963698       6.12248327      22.66674438  T       0.49091541      -0.61856177      -1.23859904
O        1.89300928       0.22539856      20.08455114  T       0.29563867       0.81606989       0.23625027
O        2.31530956       2.84634539      19.94233256  T       1.48310101       0.01399930       0.32642989
O        3.47190992       1.30675914      18.19160408  T       0.53120013       0.28081743      -0.63076180
O        0.80403079       1.61182561      18.06587132  T      -0.38238602       0.13496997       0.36405766
O        0.38515662       4.07052731      17.80483910  T      -0.42948009       0.71053055       0.43041998
O        9.08145537       1.39501677      21.44323387  T      -0.22349754       0.43810628      -0.01262844
O        5.47266165       3.04288493      18.22453475  T       0.70551970      -0.23566515      -0.59138611
O        4.69185257       3.91956973      20.66737451  T       0.58074217      -0.25220994       0.32830287
O        7.07015265       2.74841920      20.35615564  T       0.10952605       0.23632558       0.45761889
O        6.48777502       0.50351099      21.50231878  T       0.86403485       0.15689389       0.42593463
O        6.60190117       5.23109477      19.37543595  T      -0.32741273      -0.30649646       0.14612445
O        7.93251696       9.82879900      16.75878654  T       0.26705371       0.63054242      -0.20521631
O        3.83294273       6.95304246      16.82850373  T      -0.25143407      -0.55762003       0.00635629
O        3.82374928       9.38009724      21.36253200  T       0.28168181      -0.18409332      -0.69934499
O        3.25880389       8.01151950      19.12696135  T       0.07980504       0.21415732       0.16730358
O        1.30314398       6.63433830      17.78046999  T      -0.06926074      -0.57191083       0.88742942
O        3.21375031       5.28778126      18.90926933  T       0.23673147      -0.11081302       0.96791806
O        0.17490556       5.59241194      19.99147457  T      -0.72404772       0.68891871       0.15877134
O        1.52971525       7.76316092      21.17103346  T       0.03467130      -0.44785367       0.73393874
O        4.66567954       8.35882169      22.00394156  T      -0.90704823      -0.93203228       0.47960897
O        8.06117897       0.20822631      19.35426537  T       0.20468430       0.17700832      -0.17349107
O        6.86308012       8.78135399      23.67826142  T      -0.44815664      -0.71549083      -0.17583258
O        6.17567744       5.80955679      16.90895725  T      -0.14021423      -0.00954081       0.54499868
O        5.71994206       0.21445302      18.21722635  T      -0.25136188      -0.23935632      -0.08925823
O        8.67547813       6.07167811      17.92093851  T      -0.24547420       0.48363154      -0.10177871
O        6.93571487       7.86562309      18.40650665  T      -0.49983695       0.35872171       0.25720635
O        2.05117025       4.61640516       3.85576302  T      -0.64615625      -1.38363998      -0.05953908
O        1.55701078       2.48707081       2.13986122  T       0.72477323      -0.18271698      -2.67126133
O        3.85457230       2.68674816       4.16281878  T      -0.74180867       0.31921100       0.05538861
O        3.81170644       4.55638336       6.12446061  T      -0.16885310      -0.94927319      -0.63819847
O        1.62830921       2.96461377       5.79562583  T      -0.43167399       0.38744471       0.11931655
O        4.92454216       1.33174693       5.88228654  T       0.50527523       0.34975104      -0.46929322
O        5.21850268       0.92479594       3.16511822  T       0.58211416       0.49861203      -0.31686544
O        6.18935018       3.57438762       4.02762419  T       0.08137659      -0.46426145      -0.73815743
O        7.12878481       1.58067793       4.83683370  T       1.36585496       0.98001361       0.98365018
O        9.06237256       2.29132988       6.39113241  T       0.08199110       0.31696922       1.27680404
O        9.65738639       0.61500097       4.61124303  T       0.15629133       0.85539392      -0.86330269
O        1.01870183       9.71474587       2.49840622  T       0.62511627      -0.26134787      -0.09655343
O        1.13939254       8.08994626       4.65991370  T      -0.00111514      -1.23332194       0.63392833
O        9.87000000       6.98000000       2.02000000  F       0.00000000       0.00000000       0.00000000
O        5.33735431       6.03360257       4.62233789  T       0.83852885      -0.36138005       0.13513413
O        5.59000000       5.63000000       2.17000000  F       0.00000000       0.00000000       0.00000000
O        7.72908914       5.81542634       3.58462673  T       0.10369341      -0.04028337      -0.43036495
O        5.57440918       8.22307040       2.51861276  T      -0.48051393      -0.37654536       0.81449456
O        8.66182154       8.43340949       3.57284860  T       0.29170068       0.51456195      -0.15001320
O        3.48566723       4.13440863      11.54776606  T       0.00496597      -0.31126424       0.57343463
O        1.10815318       4.85854041      11.40891113  T      -0.23428683      -0.12006972       0.39164818
O        1.76524103       0.86490744      10.27809656  T       0.02634800      -0.70159328      -0.35210387
O        2.68865681       3.16042544       9.25912246  T      -0.57866221       0.89115197      -0.42896454
O        3.64837947       1.05804905       8.25742242  T      -0.24870670       0.79951738       0.83447849
O        0.93609923       1.60408173       7.98143635  T      -0.42713477      -0.15359717       0.35475205
O        0.45477515       4.17550453       7.82760013  T       0.20139247      -0.39370726      -0.50436013
O        9.26984225       1.29744887      11.26812107  T      -0.55609048      -0.42807993      -0.93613897
O        6.02114897       2.53802672       7.83949171  T       0.47020907       0.17346491       0.71542865
O        5.26831739       4.08120011       9.82784863  T       0.11327940      -0.00744956       0.45250880
O        7.44365469       2.47206439      10.00893915  T       0.32807446       0.24669096      -0.39513337
O        6.70052501       0.23672751      11.28573024  T      -1.49944296       0.20419164       0.63974482
O        7.45820570       4.80801023       8.75383063  T      -0.14238690      -0.45240102      -0.84174609
O        8.02516441       9.84065439       6.65366877  T       0.10466240       0.42401637       0.12339831
O        4.04961908       7.09637880       6.86524402  T       0.51651043      -0.29073846      -0.51096931
O        4.08543533       9.62554067      11.12655378  T       0.48781861       0.39675956      -0.66599177
O        3.02535270       8.28534693       8.87862003  T      -0.43056280      -0.11606910       0.54942254
O        1.54613148       6.58773966       7.21207721  T      -0.09268826      -0.10993499      -2.21005115
O        3.25522554       5.67774796       9.11192626  T      -0.79534339      -0.09741720       0.63440963
O        0.16158199       6.29510188       9.51711958  T       0.99225976      -1.16112941       0.43476849
O        2.32751562       7.37738249      11.16819043  T      -0.37480083      -0.48358837       0.41126974
O        4.94017315       7.29790404      10.40621614  T      -0.84427806      -0.74318336       0.17564344
O        8.30455799      -0.00216227       9.22792901  T       0.79252095      -1.10449751      -0.01868224
O        7.50864966       7.16243619      11.30116405  T       0.43812167      -0.31227946       0.39343804
O        6.23563484       5.54804376       6.83651968  T       0.21123766       0.46334469      -0.32387202
O        5.84848250       9.85897694       7.96252859  T       0.56209664      -0.08404587      -0.06895206
O        8.95884406       6.14463680       7.14736418  T      -0.18406330       0.96648879      -0.83536574
O        7.15625464       7.65191717       8.21023693  T      -0.47843803       0.00237007       0.38223701
O        3.55000000       4.18000000       1.53000000  F       0.00000000       0.00000000       0.00000000
O        1.14000000       4.89000000       1.35000000  F       0.00000000       0.00000000       0.00000000
O        9.29000000       1.31000000       1.44000000  F       0.00000000       0.00000000       0.00000000
O        6.84000000       0.20000000       1.30000000  F       0.00000000       0.00000000       0.00000000
O        3.95000000       9.60000000       1.25000000  F       0.00000000       0.00000000       0.00000000
O        2.28000000       7.42000000       1.08000000  F       0.00000000       0.00000000       0.00000000
O        7.52000000       7.21000000       1.37000000  F       0.00000000       0.00000000       0.00000000
Si       2.07150651       3.98251491      12.38229076  T      -1.23239556       0.42337848       0.61054184
Si       2.90087381       3.65691840      15.00685591  T      -0.21684444       0.38142021      -0.67659550
Si       0.82401339       1.10230538      11.63529242  T       0.22289513      -0.89310553      -1.97195515
Si       8.35703711       1.01363270      15.65174855  T       0.61292371      -0.49793310       1.20735186
Si       5.56398834       2.10129069      14.46436288  T       0.05541880       0.75103130       0.51819084
Si       4.76231009       5.79314577      16.12793996  T      -0.34555569      -1.22803450       0.02692131
Si       0.02884551       9.19347241      13.84930058  T       0.51329020       0.68506569      -0.99993206
Si       6.21310418       5.15449539      13.63277204  T       0.50670937       0.35759076       0.14873673
Si       5.34256325       9.87278743      12.19371401  T      -0.83058530       1.08310445       0.12212920
Si       8.40935480       7.02075005      12.65854737  T       0.77173356      -0.32616499      -0.68425513
Si       3.16066250       4.29265811      20.23154865  T       0.06466699      -0.88163219      -0.14736090
Si       2.10407424       1.52513549      19.06213447  T       0.09662205       0.89200184       0.16479150
Si       0.49285589       2.73012597      16.89297262  T       0.69654712       1.24457051       0.48117544
Si       4.97069028       1.55862103      17.63020118  T       0.14208421       0.12690452      -0.41559649
Si       5.96729072       3.71982355      19.61102785  T       0.48083273       0.03416055      -1.72099668
Si       7.69527396       1.24272241      20.57166010  T      -0.19706059      -0.50960650       1.30020161
Si       2.56380413       8.77761796      20.42841945  T       0.23307578       0.87218537       1.10050439
Si       2.85775086       6.73548107      18.14985623  T      -0.79612102       0.38822747      -0.34057728
Si       1.11075803       6.13508220      21.32367921  T      -0.01543714       0.15656395      -0.32930495
Si       0.14318798       5.56067821      18.35665926  T       0.18001143       0.17796556      -1.26432883
Si       6.08875076       9.29412727      22.45205061  T      -0.53707923       1.65741427      -1.01434959
Si       7.06847874       6.25298394      18.18715375  T      -0.52995979      -0.45384807       0.39576249
Si       7.18757967       9.47386250      18.11881480  T      -0.00469052      -0.02031499      -0.62294127
Si       2.10000000       3.98000000       2.32000000  F       0.00000000       0.00000000       0.00000000
Si       2.85600794       3.66260982       4.99884263  T      -0.69625144       1.29545463      -0.39941026
Si       0.89000000       1.15000000       1.77000000  F       0.00000000       0.00000000       0.00000000
Si       8.42168544       1.05838942       5.62655041  T       0.79578543      -1.01150773       0.29727384
Si       5.53231949       2.00031064       4.42445382  T      -0.23170999       0.59454600       0.37677863
Si       4.81113804       5.81406358       6.14820681  T      -0.01434031       0.41730284       0.20610259
Si       0.08008530       9.20451486       3.96401814  T       1.33270414       1.50868397      -0.33295294
Si       6.20071619       5.10855185       3.61627078  T       0.36204306      -0.86715593       0.13649715
Si       5.42000000       9.77000000       2.06000000  F       0.00000000       0.00000000       0.00000000
Si       8.44231793       7.02079295       2.74707884  T      -0.25295057       0.11134569      -0.05504073
Si       3.65755129       4.28308968       9.90323831  T      -1.35947883       0.43056915      -0.57297400
Si       2.24474035       1.62863777       8.95917721  T      -0.17270419       0.12888409      -0.33714454
Si       0.52378335       2.80408828       7.00802106  T       1.12873347      -0.67179613       0.44946609
Si       5.07739381       1.22364259       7.47427995  T       1.65166271      -0.35465382       0.22489156
Si       6.56938412       3.46387010       9.09384128  T      -0.08161832      -0.15857992       0.92499653
Si       7.86222353       0.96607788      10.46529905  T      -0.74885268       0.88582295      -0.15792467
Si       3.53021422       8.20377900      10.41704246  T       0.01220043      -0.47154655      -0.02537820
Si       2.95907966       6.88384708       8.03064226  T      -0.08423967      -0.32765276       0.39750360
Si       0.90905920       6.40129223      11.00931814  T       0.36356615      -0.61467059      -0.74912328
Si       0.29557722       5.78368266       7.96169224  T       0.10124759       0.20932590       0.65393644
Si       5.89086426       7.06118671      11.62932604  T       0.39515560      -0.24875407       1.18535505
Si       7.41826427       6.09758374       7.78325275  T       0.45971381       0.24166427      -0.00354569
Si       7.35465431       9.29038250       8.03153643  T      -0.69421620       0.33290854      -0.18723662
Si       7.93000000       1.02000000       0.50000000  F       0.00000000       0.00000000       0.00000000
Si       0.91000000       6.44000000       0.98000000  F       0.00000000       0.00000000       0.00000000
Si       5.91000000       7.08000000       1.49000000  F       0.00000000       0.00000000       0.00000000
C        5.00373542       4.99488006      22.85339205  T      -0.81611105       0.05659470     -13.19655390
F        5.78754883       6.06288896      22.86723971  T       0.33303675       0.03710048     -20.82339071
F        5.78751057       3.94498035      22.87323800  T       0.51506186      -0.20362441     -20.57350005
153
Lattice="10.0 0.0 0.0 0.0 10.0 0.0 0.0 0.0 43.74" Properties=species:S:1:pos:R:3:move_mask:L:1:momenta:R:3 etch=trj_CF2_30eV_case1 idx=0 index=0 source=trj_CF2_30eV_case1/0000/OUTCAR converged=T time_fs=37.0 pbc="T T T"
O        2.17370434       4.62768169      13.88626906  T      -0.26496003      -0.48244017      -0.00856066
O        1.43315886       2.46118656      12.29404474  T      -0.34124582       0.27041719      -1.05574799
O        3.81764825       2.57025461      14.27372776  T      -0.52756075       0.15093562      -0.02171178
O        3.71755788       4.49630395      16.12598503  T      -0.00371228      -0.20253202       0.32582210
O        1.75979491       2.88709441      15.87557220  T      -0.34409322      -0.44160834       0.28389971
O        5.04395020       1.72441624      16.02246666  T       0.07753139       0.19058879       0.98581957
O        5.03220790       0.96941204      13.31008686  T      -0.23189983       0.62742868       0.32203425
O        6.14551677       3.61911788      14.03801146  T      -0.11283935      -0.31593090      -0.16991618
O        7.14224948       1.48612916      14.75369558  T       0.95798892       0.66518445       0.38817833
O        8.95271824       2.34140463      16.44302005  T      -0.63298970       0.62255932       0.52288001
O        9.64828523       0.44620997      14.82122248  T       0.37219147       0.69374700       0.85266623
O        0.91053616       9.78153621      12.59833104  T      -0.38576895       0.37029077      -0.07300335
O        1.10645596       8.15617108      14.69133214  T      -0.29369588      -0.88476560       0.73053694
O       10.00991340       6.89385831      12.27391449  T       0.17759284      -0.71181223       0.95341913
O        5.33964801       6.08564261      14.64128715  T       0.64432573      -1.26182791       0.57289971
O        5.64898662       5.50205779      12.10131422  T       0.09304306      -0.76943224      -0.09477780
O        7.72374798       5.85675377      13.60707936  T      -0.09856115       0.33136516      -0.59747036
O        5.59283259       8.25746727      12.73165605  T       0.02512086       0.93410224       1.76910561
O        8.62102380       8.36604578      13.59831899  T      -0.04487645       0.34949173      -0.43843288
O        2.43542381       5.11311001      21.44987769  T      -0.21958100      -0.46772775      -0.92976036
O        0.24249038       6.11862332      22.65937185  T       0.43632176      -0.63897581      -1.15920335
O        1.89484030       0.23038425      20.08582440  T       0.30099234       0.80669152       0.17906657
O        2.32467321       2.84719066      19.94459555  T       1.56558779       0.25866468       0.40964522
O        3.47500968       1.30850536      18.18770154  T       0.47435792       0.28832554      -0.63817886
O        0.80197969       1.61252925      18.06816541  T      -0.28504274       0.09546521       0.38344641
O        0.38251943       4.07514044      17.80739988  T      -0.42850774       0.78821863       0.40202874
O        9.08010952       1.39774368      21.44312577  T      -0.21394975       0.45013382      -0.02191976
O        5.47703651       3.04123098      18.22093570  T       0.71945394      -0.30195316      -0.58036878
O        4.69542272       3.91802571      20.66910161  T       0.57876326      -0.25046042       0.22897464
O        7.07083006       2.74977234      20.35875918  T       0.11070121       0.20385669       0.38956792
O        6.49307565       0.50453883      21.50473879  T       0.86118595       0.17898550       0.36169494
O        6.59981579       5.22906586      19.37647310  T      -0.35114738      -0.35265061       0.19135961
O        7.93432474       9.83275351      16.75714441  T       0.32050753       0.65493565      -0.32670555
O        3.83123552       6.94957772      16.82871859  T      -0.30454176      -0.57091312       0.06308045
O        3.82540616       9.37906629      21.35829024  T       0.25936725      -0.15137815      -0.68082714
O        3.25902752       8.01277668      19.12806800  T      -0.00791909       0.19495487       0.19283372
O        1.30227319       6.63069721      17.78590520  T      -0.21391901      -0.61250510       0.88120985
O        3.21524231       5.28709889      18.91530060  T       0.24895941      -0.10896100       0.99365516
O        0.17088905       5.59682991      19.99291111  T      -0.58438256       0.74982699       0.30594083
O        1.52997429       7.76012345      21.17546923  T       0.05193295      -0.53797023       0.70949504
O        4.66055596       8.35340869      22.00697042  T      -0.76108131      -0.82900355       0.50647730
O        8.06224770       0.20936136      19.35318261  T       0.14271319       0.19305054      -0.17855761
O        6.86020864       8.77699042      23.67711023  T      -0.48923131      -0.70428489      -0.20233362
O        6.17494766       5.80931957      16.91248942  T      -0.09936587      -0.06811990       0.60418391
O        5.71852332       0.21309803      18.21655966  T      -0.21020576      -0.20192333      -0.12805683
O        8.67386455       6.07460695      17.92021234  T      -0.27956647       0.47014036      -0.13465018
O        6.93261846       7.86808817      18.40814328  T      -0.50850173       0.44157135       0.27556540
O        2.04727464       4.60756937       3.85516608  T      -0.62423135      -1.49188308      -0.13549651
O        1.56152256       2.48575555       2.12351138  T       0.74612053      -0.24361010      -2.65416419
O        3.84993837       2.68885126       4.16325258  T      -0.76633829       0.36495148       0.08531907
O        3.81015250       4.55015409       6.12031380  T      -0.33390571      -1.07470937      -0.71109958
O        1.62567936       2.96695621       5.79646049  T      -0.42324250       0.37566442       0.15138376
O        4.92759621       1.33396088       5.87917807  T       0.48942592       0.37040780      -0.53875194
O        5.22230976       0.92779168       3.16328580  T       0.65798944       0.47761052      -0.27918574
O        6.18979158       3.57148100       4.02289868  T       0.06229239      -0.48282587      -0.80083696
O        7.13727322       1.58645477       4.84271302  T       1.39439724       0.90274050       0.92955730
O        9.06333041       2.29385291       6.39935082  T       0.22804519       0.50032569       1.39749092
O        9.65834077       0.62011553       4.60592440  T       0.15512551       0.81064772      -0.86848208
O        1.02244138       9.71331898       2.49806938  T       0.59302190      -0.20249190      -0.01339046
O        1.13901637       8.08281796       4.66360700  T      -0.12240234      -1.08684090       0.56823110
O        9.87000000       6.98000000       2.02000000  F       0.00000000       0.00000000       0.00000000
O        5.34229161       6.03156801       4.62311893  T       0.76870879      -0.30126933       0.12001589
O        5.59000000       5.63000000       2.17000000  F       0.00000000       0.00000000       0.00000000
O        7.72997588       5.81518381       3.58193602  T       0.18471483      -0.03948873      -0.44548050
O        5.57136091       8.22094669       2.52407118  T      -0.51193574      -0.31465943       0.96186982
O        8.66353674       8.43647755       3.57193125  T       0.26800941       0.48465749      -0.14879079
O        3.48554804       4.13251619      11.55119482  T      -0.04459445      -0.30474377       0.54173828
O        1.10668713       4.85774391      11.41126732  T      -0.24402558      -0.13869791       0.37500043
O        1.76521206       0.86039701      10.27627822  T      -0.03483681      -0.76717105      -0.24178525
O        2.68506768       3.16599961       9.25646338  T      -0.59199806       0.92160818      -0.43785382
O        3.64662169       1.06306097       8.26255636  T      -0.31866349       0.83205570       0.83490071
O        0.93373912       1.60296966       7.98377093  T      -0.34052441      -0.20975899       0.40669109
O        0.45598883       4.17321117       7.82464038  T       0.19344633      -0.34899713      -0.45804265
O        9.26616941       1.29472594      11.26236361  T      -0.63666448      -0.45880342      -0.93770793
O        6.02398531       2.53914259       7.84398055  T       0.45236387       0.18779630       0.74513753
O        5.26880935       4.08108562       9.83048153  T       0.04446880      -0.02932123       0.40520889
O        7.44564137       2.47357411      10.00658236  T       0.31964887       0.24428225      -0.37135801
O        6.69108479       0.23797000      11.28990707  T      -1.56899312       0.20384012       0.71581768
O        7.45744074       4.80499287       8.74904302  T      -0.10617027      -0.52973071      -0.71751837
O        8.02606082       9.84310845       6.65418884  T       0.18676089       0.37332023       0.04736359
O        4.05315181       7.09429703       6.86184647  T       0.63036127      -0.38572184      -0.59161411
O        4.08819663       9.62779947      11.12239927  T       0.41039601       0.33769079      -0.68759705
O        3.02262866       8.28465877       8.88186814  T      -0.45707453      -0.10897019       0.50642185
O        1.54556091       6.58695756       7.19895513  T      -0.09180937      -0.14496515      -2.06063927
O        3.25029200       5.67701334       9.11578577  T      -0.81218888      -0.13934937       0.62084916
O        0.16792034       6.28814034       9.52004878  T       1.07089113      -1.10585723       0.51691414
O        2.32470397       7.37415993      11.17071797  T      -0.53919100      -0.56459693       0.41094716
O        4.93457595       7.29348528      10.40679817  T      -0.97491207      -0.69693403       0.01813965
O        8.30908948      -0.00920718       9.22757654  T       0.68129828      -1.18773047      -0.09339160
O        7.51140344       7.16057667      11.30361410  T       0.45650384      -0.29298270       0.40267517
O        6.23690148       5.55093371       6.83457298  T       0.20130650       0.47787667      -0.30977920
O        5.85176356       9.85852733       7.96224489  T       0.50323669      -0.06132962      -0.02357545
O        8.95731564       6.15068150       7.14220151  T      -0.31026044       1.00146245      -0.84350423
O        7.15340582       7.65211686       8.21261062  T      -0.44950236       0.06279179       0.39076614
O        3.55000000       4.18000000       1.53000000  F       0.00000000       0.00000000       0.00000000
O        1.14000000       4.89000000       1.35000000  F       0.00000000       0.00000000       0.00000000
O        9.29000000       1.31000000       1.44000000  F       0.00000000       0.00000000       0.00000000
O        6.84000000       0.20000000       1.30000000  F       0.00000000       0.00000000       0.00000000
O        3.95000000       9.60000000       1.25000000  F       0.00000000       0.00000000       0.00000000
O        2.28000000       7.42000000       1.08000000  F       0.00000000       0.00000000       0.00000000
O        7.52000000       7.21000000       1.37000000  F       0.00000000       0.00000000       0.00000000
Si       2.06724200       3.98386879      12.38423296  T      -1.20398837       0.34892425       0.49817136
Si       2.90013292       3.65812084      15.00455446  T      -0.20729624       0.30434329      -0.63665225
Si       0.82492771       1.09927070      11.62827368  T       0.29745600      -0.83980954      -2.03965756
Si       8.35918635       1.01190391      15.65607795  T       0.61610947      -0.48700279       1.26715941
Si       5.56395074       2.10380083      14.46619499  T      -0.07630752       0.68271516       0.53078474
Si       4.76097568       5.78889604      16.12798715  T      -0.41617691      -1.20129908       0.00210746
Si       0.03071121       9.19574661      13.84592505  T       0.55191732       0.61527833      -0.92542963
Si       6.21488365       5.15591009      13.63312875  T       0.51130014       0.44740128       0.05459103
Si       5.33974440       9.87629648      12.19403389  T      -0.78243640       0.92338616       0.06365439
Si       8.41218894       7.01960778      12.65630474  T       0.84934047      -0.32577853      -0.59549592
Si       3.16066347       4.28943887      20.23090701  T      -0.06264035      -0.95766599      -0.21925100
Si       2.10444907       1.52802648      19.06264932  T       0.11945722       0.76054585       0.12819060
Si       0.49525062       2.73443607      16.89481164  T       0.66844591       1.21813139       0.57040653
Si       4.97111476       1.55909391      17.62865043  T       0.10190638       0.14212754      -0.46907881
Si       5.96908448       3.72002041      19.60508277  T       0.54585556       0.07574382      -1.67653513
Si       7.69455974       1.24089062      20.57633490  T      -0.21013040      -0.53578798       1.36908663
Si       2.56465305       8.78070332      20.43210077  T       0.24987532       0.88997404       1.00327366
Si       2.85526708       6.73684981      18.14867277  T      -0.62148928       0.39337870      -0.33300940
Si       1.11065430       6.13561043      21.32229534  T      -0.04237846       0.14404073      -0.46497808
Si       0.14381783       5.56141195      18.35223553  T       0.17687021       0.24387070      -1.25940223
Si       6.08678467       9.29968177      22.44857970  T      -0.58690770       1.51295351      -0.96471521
Si       7.06677618       6.25140485      18.18845056  T      -0.44278546      -0.44639829       0.34644588
Si       7.18745086       9.47379057      18.11688463  T      -0.06883480      -0.01959014      -0.48024978
Si       2.10000000       3.98000000       2.32000000  F       0.00000000       0.00000000       0.00000000
Si       2.85378082       3.66722874       4.99758937  T      -0.57795452       1.34209161      -0.31577644
Si       0.89000000       1.15000000       1.77000000  F       0.00000000       0.00000000       0.00000000
Si       8.42427938       1.05480704       5.62758772  T       0.69086306      -1.03106594       0.29796251
Si       5.53135467       2.00240528       4.42585782  T      -0.31772178       0.60265844       0.42449489
Si       4.81110155       5.81566028       6.14878441  T      -0.00638754       0.49077149       0.12218955
Si       0.08504626       9.20950270       3.96272888  T       1.50331502       1.34028044      -0.40418206
Si       6.20202095       5.10563914       3.61685725  T       0.38430063      -0.79711247       0.19706929
Si       5.42000000       9.77000000       2.06000000  F       0.00000000       0.00000000       0.00000000
Si       8.44130702       7.02131510       2.74694582  T      -0.32380196       0.18851526      -0.02093134
Si       3.65289439       4.28457107       9.90140990  T      -1.29991687       0.41477389      -0.46832273
Si       2.24442921       1.62907555       8.95787586  T      -0.00607050       0.12301272      -0.40547547
Si       0.52756518       2.80169322       7.00928389  T       1.03171097      -0.69699974       0.27156678
Si       5.08317517       1.22241043       7.47512329  T       1.65048696      -0.34748490       0.25628455
Si       6.56901506       3.46336306       9.09698747  T      -0.12994139      -0.12924327       0.87301924
Si       7.85984121       0.96929051      10.46476577  T      -0.61596625       0.94541253      -0.14741779
Si       3.53044088       8.20220599      10.41712319  T       0.11622153      -0.42744481       0.07420963
Si       2.95866174       6.88273018       8.03198555  T      -0.15515549      -0.31068603       0.36701356
Si       0.91051192       6.39926701      11.00669694  T       0.46660643      -0.54288263      -0.74423211
Si       0.29600788       5.78447586       7.96388716  T       0.14385231       0.24228517       0.59598014
Si       5.89234905       7.06022809      11.63364034  T       0.45069912      -0.29673529       1.28091165
Si       7.42006189       6.09847510       7.78313759  T       0.56677398       0.26786936      -0.06278945
Si       7.35232374       9.29154187       8.03094814  T      -0.63380062       0.32765296      -0.14863481
Si       7.93000000       1.02000000       0.50000000  F       0.00000000       0.00000000       0.00000000
Si       0.91000000       6.44000000       0.98000000  F       0.00000000       0.00000000       0.00000000
Si       5.91000000       7.08000000       1.49000000  F       0.00000000       0.00000000       0.00000000
C        4.99707286       4.99544489      22.74557473  T      -0.80541539       0.07947849     -13.16920863
F        5.78926782       6.06294528      22.75954495  T       0.32939962      -0.01665522     -20.83634649
F        5.79031701       3.94393466      22.76706569  T       0.56884287      -0.19759228     -20.49186988
153
Lattice="10.0 0.0 0.0 0.0 10.0 0.0 0.0 0.0 43.74" Properties=species:S:1:pos:R:3:move_mask:L:1:momenta:R:3 etch=trj_CF2_30eV_case1 idx=0 index=0 source=trj_CF2_30eV_case1/0000/OUTCAR converged=T time_fs=38.0 pbc="T T T"
O        2.17205222       4.62458798      13.88613381  T      -0.27404591      -0.52359810      -0.03459718
O        1.43107172       2.46291539      12.28774444  T      -0.33960152       0.29072216      -0.99702363
O        3.81439098       2.57157953      14.27346908  T      -0.53236445       0.27995192      -0.06221592
O        3.71789454       4.49536707      16.12803834  T       0.11171208      -0.10425088       0.34210677
O        1.75722059       2.88427431      15.87739291  T      -0.49148589      -0.47505400       0.30732051
O        5.04457255       1.72549059      16.02888716  T       0.12600742       0.16023826       1.09891261
O        5.03117107       0.97308097      13.31195327  T      -0.10589593       0.56692849       0.28549079
O        6.14484241       3.61706113      14.03694272  T      -0.10636530      -0.35110772      -0.17887896
O        7.14806128       1.49012100      14.75589213  T       0.93267060       0.63538634       0.32693317
O        8.94912694       2.34525683      16.44611502  T      -0.53435765       0.63263675       0.48633034
O        9.65058100       0.45034951      14.82634661  T       0.37777696       0.65145180       0.81365522
O        0.90811397       9.78379781      12.59790914  T      -0.40209681       0.36697748      -0.06601737
O        1.10444938       8.15089946      14.69569129  T      -0.36111805      -0.83102128       0.68831785
O       10.01077662       6.88946746      12.27947943  T       0.10602557      -0.71915510       0.85666178
O        5.34329611       6.07787734      14.64483380  T       0.54318148      -1.26593002       0.58242764
O        5.64966507       5.49749070      12.10112740  T       0.12798233      -0.71633659       0.03353515
O        7.72335406       5.85876169      13.60335180  T      -0.02979729       0.32208685      -0.61581234
O        5.59298967       8.26356388      12.74247522  T       0.02632305       1.04769889       1.75116432
O        8.62078296       8.36841189      13.59557664  T      -0.03291982       0.42115848      -0.45513257
O        2.43386938       5.11039998      21.44403404  T      -0.28721720      -0.41467679      -0.97241625
O        0.24497248       6.11463577      22.65254795  T       0.37020903      -0.66013285      -1.06025125
O        1.89670676       0.23529019      20.08675610  T       0.30715196       0.79010532       0.12509478
O        2.33451478       2.84948526      19.94734734  T       1.63824072       0.48441002       0.48489421
O        3.47769302       1.31030253      18.18379137  T       0.39586595       0.29739685      -0.63332886
O        0.80053688       1.61301094      18.07058139  T      -0.18448565       0.06278006       0.40371053
O        0.37990604       4.08016326      17.80975804  T      -0.42174574       0.84369137       0.36446226
O        9.07883810       1.40054332      21.44297142  T      -0.19927144       0.46179775      -0.02771721
O        5.48149442       3.03919033      18.21741635  T       0.73259844      -0.36141356      -0.56517354
O        4.69891719       3.91649790      20.67012561  T       0.55478911      -0.24683175       0.09804322
O        7.07150805       2.75091577      20.36092877  T       0.10981603       0.16796356       0.31610535
O        6.49833316       0.50571753      21.50675533  T       0.84974234       0.20561544       0.29499397
O        6.59759790       5.22678484      19.37778056  T      -0.37040040      -0.38819090       0.23384647
O        7.93643635       9.83681076      16.75481103  T       0.36554937       0.66355789      -0.42938606
O        3.82920599       6.94603391      16.82927160  T      -0.35620398      -0.58328620       0.11631812
O        3.82694776       9.37824192      21.35418850  T       0.24416972      -0.11685361      -0.65373745
O        3.25869768       8.01390918      19.12932471  T      -0.10031289       0.17357245       0.21604101
O        1.30052826       6.62683631      17.79127159  T      -0.35282169      -0.64317310       0.86514537
O        3.21680402       5.28646929      18.92143799  T       0.25946892      -0.09358916       1.00244049
O        0.16772761       5.60161383      19.99519441  T      -0.44587753       0.80795250       0.43394315
O        1.53037619       7.75659410      21.17972944  T       0.08128855      -0.60779462       0.67672397
O        4.65634127       8.34866526      22.01015393  T      -0.61137669      -0.71398562       0.52984628
O        8.06292435       0.21059995      19.35207974  T       0.07708559       0.21073296      -0.18002909
O        6.85705407       8.77272241      23.67574683  T      -0.54004444      -0.68453102      -0.24449661
O        6.17443666       5.80871663      16.91636005  T      -0.06925845      -0.12862538       0.65501058
O        5.71736592       0.21197486      18.21565273  T      -0.16644275      -0.16381803      -0.16747331
O        8.67205232       6.07744766      17.91928714  T      -0.30999990       0.45489405      -0.16647197
O        6.92947432       7.87101496      18.40988668  T      -0.51539135       0.50868895       0.29200840
O        2.04349077       4.59811552       3.85409451  T      -0.60983235      -1.58481760      -0.21390860
O        1.56618499       2.48410290       2.10727669  T       0.77397319      -0.29233110      -2.63378321
O        3.84517752       2.69121887       4.16385949  T      -0.78295525       0.40517821       0.11164126
O        3.80764533       4.54324453       6.11574663  T      -0.47868375      -1.17013171      -0.77476609
O        1.62313104       2.96922747       5.79747146  T      -0.40498954       0.36432550       0.17657176
O        4.93055005       1.33628398       5.87572011  T       0.47261303       0.38521406      -0.58272536
O        5.22658103       0.93066422       3.16169866  T       0.73324295       0.45849323      -0.23703263
O        6.19011403       3.56845732       4.01779464  T       0.04266543      -0.50222486      -0.86141618
O        7.14585660       1.59177308       4.84822757  T       1.39680759       0.83081525       0.86490575
O        9.06514707       2.29742180       6.40825899  T       0.36074649       0.65682873       1.50081382
O        9.65929598       0.62495420       4.60058725  T       0.15645466       0.76546169      -0.86927171
O        1.02598368       9.71226919       2.49823862  T       0.56095592      -0.13856431       0.06811863
O        1.13788154       8.07661832       4.66688245  T      -0.24786694      -0.93122375       0.49803129
O        9.87000000       6.98000000       2.02000000  F       0.00000000       0.00000000       0.00000000
O        5.34678267       6.02990391       4.62381823  T       0.69330733      -0.24081466       0.10835114
O        5.59000000       5.63000000       2.17000000  F       0.00000000       0.00000000       0.00000000
O        7.73135116       5.81493279       3.57916402  T       0.26255298      -0.04320277      -0.45674001
O        5.56812958       8.21921003       2.53040377  T      -0.53995874      -0.25100631       1.09886876
O        8.66512257       8.43935910       3.57102204  T       0.24958282       0.45393591      -0.14733322
O        3.48511259       4.13067142      11.55440082  T      -0.09783019      -0.29573409       0.50102123
O        1.10514917       4.85684497      11.41350676  T      -0.25771198      -0.15335551       0.35364118
O        1.76482519       0.85549424      10.27510752  T      -0.08980571      -0.82910829      -0.14194458
O        2.68137294       3.17171062       9.25374019  T      -0.61295082       0.93574106      -0.44975648
O        3.64452198       1.06825391       8.26764266  T      -0.35976529       0.85831009       0.81886344
O        0.93192833       1.60149705       7.98643765  T      -0.24847905      -0.27060389       0.46251118
O        0.45714532       4.17126182       7.82199251  T       0.18280428      -0.28209252      -0.40301475
O        9.26206502       1.29181663      11.25662490  T      -0.69618239      -0.48875623      -0.92986507
O        6.02668912       2.54030924       7.84862310  T       0.42697766       0.18992023       0.76534212
O        5.26883990       4.08084523       9.83282470  T      -0.03659505      -0.04851017       0.35814640
O        7.44758477       2.47505603      10.00439130  T       0.31385840       0.23774776      -0.34128170
O        6.68133081       0.23926462      11.29446614  T      -1.60124798       0.22124252       0.76393877
O        7.45690856       4.80151685       8.74502094  T      -0.06654588      -0.60119558      -0.59286178
O        8.02745042       9.84521662       6.65426615  T       0.26509119       0.31126489      -0.02045869
O        4.05731624       7.09166176       6.85802445  T       0.72176480      -0.47065601      -0.64887201
O        4.09046240       9.62967443      11.11810949  T       0.32660479       0.27196263      -0.70981673
O        3.01973794       8.28400001       8.88481717  T      -0.48476748      -0.10648588       0.45235352
O        1.54501779       6.58595903       7.18681203  T      -0.08382283      -0.18030346      -1.89159494
O        3.24524854       5.67606353       9.11952902  T      -0.83112665      -0.16741639       0.59650089
O        0.17471415       6.28153021       9.52343742  T       1.14043167      -1.04677736       0.58373906
O        2.32091815       7.37046831      11.17322398  T      -0.69143424      -0.63592838       0.40411038
O        4.92824930       7.28933724      10.40648624  T      -1.08098623      -0.65539037      -0.11474357
O        8.31290096      -0.01671781       9.22681159  T       0.55821470      -1.25599239      -0.15282771
O        7.51422955       7.15884348      11.30608842  T       0.46156940      -0.27114981       0.40143798
O        6.23810621       5.55390935       6.83272102  T       0.19111342       0.49119723      -0.29299674
O        5.85462747       9.85823442       7.96223769  T       0.42651840      -0.03313210       0.02106407
O        8.95507361       6.15692190       7.13703611  T      -0.41601842       1.03019519      -0.83632557
O        7.15073582       7.65268763       8.21503250  T      -0.42020707       0.12291494       0.39788871
O        3.55000000       4.18000000       1.53000000  F       0.00000000       0.00000000       0.00000000
O        1.14000000       4.89000000       1.35000000  F       0.00000000       0.00000000       0.00000000
O        9.29000000       1.31000000       1.44000000  F       0.00000000       0.00000000       0.00000000
O        6.84000000       0.20000000       1.30000000  F       0.00000000       0.00000000       0.00000000
O        3.95000000       9.60000000       1.25000000  F       0.00000000       0.00000000       0.00000000
O        2.28000000       7.42000000       1.08000000  F       0.00000000       0.00000000       0.00000000
O        7.52000000       7.21000000       1.37000000  F       0.00000000       0.00000000       0.00000000
Si       2.06309700       3.98494519      12.38576505  T      -1.16428768       0.26493089       0.37628397
Si       2.89942044       3.65903753      15.00241962  T      -0.20080074       0.21837018      -0.58110318
Si       0.82607860       1.09644462      11.62103782  T       0.35786017      -0.77400861      -2.09568626
Si       8.36134686       1.01024789      15.66060370  T       0.61937486      -0.45617530       1.31909580
Si       5.56345831       2.10605677      14.46808324  T      -0.20460366       0.60572605       0.55024830
Si       4.75940799       5.78474796      16.12796714  T      -0.47853393      -1.16976484      -0.01134459
Si       0.03269617       9.19777594      13.84285496  T       0.58142407       0.54518637      -0.82557682
Si       6.21668367       5.15760029      13.63315199  T       0.51858681       0.51468961      -0.04130575
Si       5.33708286       9.87924686      12.19417629  T      -0.74093165       0.76398571       0.02072477
Si       8.41529813       7.01847909      12.65439690  T       0.92895955      -0.31821358      -0.49302210
Si       3.16023262       4.28597035      20.23001656  T      -0.18237235      -1.02352665      -0.28970668
Si       2.10492031       1.53045472      19.06302471  T       0.15185386       0.62836118       0.08568752
Si       0.49750602       2.73863558      16.89696277  T       0.61692119       1.18146151       0.65979225
Si       4.97141050       1.55960671      17.62693392  T       0.06847411       0.14958071      -0.50981430
Si       5.97111527       3.72033622      19.59931048  T       0.61667127       0.10164222      -1.62300189
Si       7.69381174       1.23898689      20.58121366  T      -0.21620339      -0.55072951       1.41677964
Si       2.56553718       8.78383027      20.43543065  T       0.25313565       0.89585485       0.89992769
Si       2.85341599       6.73822602      18.14754500  T      -0.43550521       0.39238668      -0.30885656
Si       1.11046992       6.13608165      21.32041160  T      -0.06173678       0.12411361      -0.61443980
Si       0.14440542       5.56239710      18.34788503  T       0.15565304       0.32166039      -1.22226296
Si       6.08464718       9.30467806      22.44533390  T      -0.63507184       1.33898807      -0.88635827
Si       7.06538571       6.24987760      18.18958156  T      -0.35173698      -0.42415069       0.30117821
Si       7.18710028       9.47373364      18.11545629  T      -0.13105848      -0.01140644      -0.33678746
Si       2.10000000       3.98000000       2.32000000  F       0.00000000       0.00000000       0.00000000
Si       2.85195987       3.67197525       4.99664189  T      -0.46449563       1.36818712      -0.22474844
Si       0.89000000       1.15000000       1.77000000  F       0.00000000       0.00000000       0.00000000
Si       8.42653956       1.05121293       5.62864680  T       0.60560608      -1.01793681       0.30973157
Si       5.53011025       2.00452308       4.42741298  T      -0.39164698       0.60789825       0.46291368
Si       4.81109396       5.81746530       6.14904992  T       0.00213295       0.53573319       0.02767992
Si       0.09059433       9.21387288       3.96119194  T       1.66788049       1.15614031      -0.47445110
Si       6.20340585       5.10298351       3.61763858  T       0.40792046      -0.72026831       0.24786074
Si       5.42000000       9.77000000       2.06000000  F       0.00000000       0.00000000       0.00000000
Si       8.44006144       7.02211896       2.74693255  T      -0.38688646       0.27239596       0.01328926
Si       3.64847809       4.28598083       9.89998612  T      -1.22236266       0.38966959      -0.34199890
Si       2.24469099       1.62950703       8.95635177  T       0.15427323       0.12517515      -0.46388609
Si       0.53098966       2.79921764       7.00991715  T       0.92511209      -0.71775235       0.09046605
Si       5.08891658       1.22122656       7.47606566  T       1.62887960      -0.32695630       0.28129283
Si       6.56847250       3.46297802       9.09994254  T      -0.18072532      -0.08896885       0.81602186
Si       7.85789872       0.97265631      10.46426557  T      -0.49781785       0.97329378      -0.13901828
Si       3.53101761       8.20079133      10.41757582  T       0.21149957      -0.38122962       0.18681921
Si       2.95799346       6.88167569       8.03318901  T      -0.22691700      -0.29202029       0.31778680
Si       0.91231961       6.39749692      11.00414483  T       0.56645451      -0.46914144      -0.70958194
Si       0.29657575       5.78536595       7.96583222  T       0.17943319       0.26475062       0.51163011
Si       5.89399710       7.05912757      11.63827874  T       0.48817800      -0.32963844       1.36987705
Si       7.42221901       6.09945563       7.78281218  T       0.66485233       0.29238841      -0.12328495
Si       7.35024757       9.29266062       8.03049879  T      -0.54902372       0.30979197      -0.10814283
Si       7.93000000       1.02000000       0.50000000  F       0.00000000       0.00000000       0.00000000
Si       0.91000000       6.44000000       0.98000000  F       0.00000000       0.00000000       0.00000000
Si       5.91000000       7.08000000       1.49000000  F       0.00000000       0.00000000       0.00000000
C        4.99066609       4.99615057      22.63801895  T      -0.75408899       0.09086231     -13.13216440
F        5.79093453       6.06270808      22.65177583  T       0.31316380      -0.07576498     -20.85220231
F        5.79338335       3.94296387      22.66139166  T       0.61694010      -0.17505402     -20.37865370
153
Lattice="10.0 0.0 0.0 0.0 10.0 0.0 0.0 0.0 43.74" Properties=species:S:1:pos:R:3:move_mask:L:1:momenta:R:3 etch=trj_CF2_30eV_case1 idx=0 index=0 source=trj_CF2_30eV_case1/0000/OUTCAR converged=T time_fs=39.0 pbc="T T T"
O        2.17033127       4.62126991      13.88585387  T      -0.28730646      -0.55562123      -0.05562204
O        1.42897893       2.46473480      12.28179756  T      -0.34311304       0.29980173      -0.94068684
O        3.81112447       2.57368276      14.27296713  T      -0.53029220       0.40405867      -0.10098735
O        3.71890986       4.49500459      16.13017514  T       0.21685788      -0.01599064       0.35284706
O        1.75379324       2.88128237      15.87932533  T      -0.62152861      -0.49746360       0.32008163
O        5.04550536       1.72639300      16.03588722  T       0.17859109       0.13466214       1.17393269
O        5.03090602       0.97636579      13.31358848  T       0.01928973       0.50245274       0.24689451
O        6.14421553       3.61483807      14.03580812  T      -0.09737758      -0.36991175      -0.19140742
O        7.15367689       1.49393307      14.75770682  T       0.89434652       0.60658291       0.26401663
O        8.94618101       2.34917564      16.44900193  T      -0.42311627       0.64415328       0.45506611
O        9.65294441       0.45417773      14.83118559  T       0.39397625       0.59275579       0.76014009
O        0.90561066       9.78604845      12.59750396  T      -0.41223462       0.36682008      -0.06758516
O        1.10201109       8.14598087      14.69977300  T      -0.43409416      -0.76997091       0.64032112
O       10.01124015       6.88502166      12.28440705  T       0.04739204      -0.72963897       0.74610399
O        5.34631010       6.07011661      14.64843773  T       0.43802136      -1.26038243       0.59136049
O        5.65055714       5.49328191      12.10171980  T       0.16240575      -0.65276586       0.15862337
O        7.72338053       5.86070165      13.59952849  T       0.03815263       0.30912742      -0.62853759
O        5.59315843       8.27028778      12.75311747  T       0.02888872       1.13822356       1.71168546
O        8.62062558       8.37121489      13.59272783  T      -0.01783555       0.49160134      -0.47314489
O        2.43189413       5.10802108      21.43795213  T      -0.35635544      -0.36009878      -1.00731857
O        0.24701718       6.11051599      22.64638577  T       0.29419249      -0.68205496      -0.94418980
O        1.89861309       0.24007255      20.08736768  T       0.31395323       0.76648005       0.07488473
O        2.34476479       2.85308519      19.95052691  T       1.69806574       0.68223473       0.54832299
O        3.47983307       1.31215996      18.17994715  T       0.29787092       0.30794255      -0.61684384
O        0.79971797       1.61331420      18.07312377  T      -0.08204922       0.03741829       0.42457114
O        0.37735151       4.08545547      17.81185842  T      -0.40938582       0.87586964       0.31818595
O        9.07767216       1.40341351      21.44279184  T      -0.17963623       0.47312610      -0.03017666
O        5.48603075       3.03680824      18.21400629  T       0.74499439      -0.41300669      -0.54454527
O        4.70217821       3.91499958      20.67023082  T       0.50111536      -0.24073060      -0.07193852
O        7.07217444       2.75182894      20.36263011  T       0.10674769       0.12909840       0.23719157
O        6.50349061       0.50706747      21.50836168  T       0.82831966       0.23424415       0.22862125
O        6.59527714       5.22432374      19.37933776  T      -0.38470355      -0.41099272       0.27285106
O        7.93879267       9.84086686      16.75191752  T       0.39982246       0.65418137      -0.50834058
O        3.82686667       6.94241816      16.83013827  T      -0.40524461      -0.59425446       0.16507378
O        3.82841816       9.37763436      21.35027905  T       0.23615482      -0.08080163      -0.61824774
O        3.25778869       8.01490424      19.13071500  T      -0.19639109       0.15023403       0.23622981
O        1.29796418       6.62282216      17.79651096  T      -0.47956826      -0.66208642       0.83997521
O        3.21842542       5.28597561      18.92757710  T       0.26844450      -0.06472707       0.99424676
O        0.16540807       5.60674379      19.99819679  T      -0.31049357       0.86238656       0.53968214
O        1.53099600       7.75270148      21.18376285  T       0.12290208      -0.65616041       0.63564387
O        4.65305202       8.34466359      22.01346854  T      -0.45997584      -0.58750016       0.54909527
O        8.06318855       0.21195203      19.35097894  T       0.00848819       0.23000365      -0.17789897
O        6.85356240       8.76859929      23.67408326  T      -0.59864552      -0.65732367      -0.29954243
O        6.17407390       5.80773706      16.92051407  T      -0.05128082      -0.19074154       0.69631299
O        5.71648229       0.21108800      18.21450250  T      -0.12125589      -0.12492391      -0.20727250
O        8.67006684       6.08018910      17.91817148  T      -0.33584149       0.43779713      -0.19658890
O        6.92629324       7.87430040      18.41172548  T      -0.52054219       0.55809690       0.30668045
O        2.03977140       4.58813991       3.85253754  T      -0.60325550      -1.66174568      -0.29330543
O        1.57103975       2.48219173       2.09117662  T       0.80883248      -0.32765774      -2.61036772
O        3.84034139       2.69381399       4.16461523  T      -0.79069930       0.43889234       0.13369093
O        3.80431991       4.53585013       6.11082185  T      -0.59992148      -1.23211536      -0.82722217
O        1.62072620       2.97143124       5.79861398  T      -0.37645317       0.35372667       0.19413646
O        4.93339744       1.33867898       5.87207486  T       0.45472833       0.39377885      -0.59955915
O        5.23131127       0.93342516       3.16038297  T       0.80740988       0.44123596      -0.19085940
O        6.19031485       3.56531448       4.01232572  T       0.02271018      -0.52142267      -0.91965967
O        7.15437561       1.59666819       4.85331425  T       1.37360169       0.76498566       0.79033048
O        9.06772491       2.30185963       6.41774016  T       0.47515987       0.78286868       1.58365956
O        9.66026565       0.62951317       4.59525946  T       0.15973854       0.71945159      -0.86539150
O        1.02933049       9.71162658       2.49890077  T       0.52943748      -0.06992517       0.14699900
O        1.13596859       8.07139666       4.66971597  T      -0.37551616      -0.76866158       0.42448107
O        9.87000000       6.98000000       2.02000000  F       0.00000000       0.00000000       0.00000000
O        5.35079572       6.02861052       4.62445422  T       0.61316299      -0.18062223       0.09919903
O        5.59000000       5.63000000       2.17000000  F       0.00000000       0.00000000       0.00000000
O        7.73319096       5.81464327       3.57633606  T       0.33578880      -0.05214508      -0.46362422
O        5.56473911       8.21786265       2.53754058  T      -0.56359713      -0.18833439       1.22349703
O        8.66661165       8.44205121       3.57012287  T       0.23648831       0.42306638      -0.14549194
O        3.48434203       4.12888950      11.55733128  T      -0.15353545      -0.28429082       0.45215452
O        1.10351527       4.85586904      11.41560112  T      -0.27523742      -0.16375201       0.32780428
O        1.76412554       0.85022608      10.27450720  T      -0.13632970      -0.88595093      -0.05670551
O        2.67752805       3.17745906       9.25093616  T      -0.64072848       0.93393303      -0.46404852
O        3.64226199       1.07358654       8.27257915  T      -0.37071852       0.87741358       0.78609201
O        0.93069525       1.59964270       7.98945277  T      -0.15266943      -0.33361870       0.51967339
O        0.45822883       4.16978427       7.81970546  T       0.16972708      -0.19596601      -0.34083629
O        9.25766555       1.28872635      11.25096511  T      -0.73245384      -0.51771126      -0.91189770
O        6.02921346       2.54145076       7.85335871  T       0.39390591       0.17961822       0.77535957
O        5.26834117       4.08049456       9.83487982  T      -0.12745979      -0.06530428       0.31137586
O        7.44949897       2.47648686      10.00240222  T       0.30998359       0.22778974      -0.30573607
O        6.67149710       0.24072074      11.29923166  T      -1.59486707       0.25637305       0.78296338
O        7.45663025       4.79762811       8.74175909  T      -0.02346714      -0.66360094      -0.47033306
O        8.02930656       9.84690826       6.65395678  T       0.33856041       0.23763139      -0.07832226
O        4.06196677       7.08854085       6.85392672  T       0.78835135      -0.54357741      -0.68123486
O        4.09219715       9.63112876      11.11368470  T       0.23766047       0.20093803      -0.73131712
O        3.01667491       8.28334254       8.88740551  T      -0.51309264      -0.10851544       0.38937244
O        1.54454428       6.58474431       7.17576087  T      -0.06925342      -0.21526950      -1.70541501
O        3.24008287       5.67498457       9.12308958  T      -0.85194116      -0.18145875       0.56138077
O        0.18190456       6.27529284       9.52718035  T       1.19992286      -0.98455681       0.63169670
O        2.31624409       7.36637434      11.17566646  T      -0.82787972      -0.69524919       0.39018485
O        4.92135768       7.28542488      10.40544357  T      -1.15829592      -0.62048493      -0.21936174
O        8.31592387      -0.02459918       9.22573102  T       0.42471861      -1.30837433      -0.19608837
O        7.51704478       7.15725173      11.30852469  T       0.45293315      -0.24694583       0.39045721
O        6.23924813       5.55696223       6.83098046  T       0.18089153       0.50297487      -0.27348918
O        5.85697059       9.85812928       7.96250164  T       0.33407421      -0.00037459       0.06471898
O        8.95225090       6.16331920       7.13196037  T      -0.49908455       1.05257197      -0.81445917
O        7.14824654       7.65362213       8.21749315  T      -0.39064552       0.18093878       0.40334686
O        3.55000000       4.18000000       1.53000000  F       0.00000000       0.00000000       0.00000000
O        1.14000000       4.89000000       1.35000000  F       0.00000000       0.00000000       0.00000000
O        9.29000000       1.31000000       1.44000000  F       0.00000000       0.00000000       0.00000000
O        6.84000000       0.20000000       1.30000000  F       0.00000000       0.00000000       0.00000000
O        3.95000000       9.60000000       1.25000000  F       0.00000000       0.00000000       0.00000000
O        2.28000000       7.42000000       1.08000000  F       0.00000000       0.00000000       0.00000000
O        7.52000000       7.21000000       1.37000000  F       0.00000000       0.00000000       0.00000000
Si       2.05910872       3.98571296      12.38685629  T      -1.11464196       0.17269728       0.24637784
Si       2.89872382       3.65964089      15.00050771  T      -0.19842838       0.12559998      -0.50905874
Si       0.82741380       1.09386895      11.61362965  T       0.40260182      -0.69685650      -2.13777171
Si       8.36351913       1.00873543      15.66529316  T       0.62289155      -0.40481592       1.36020677
Si       5.56252373       2.10802896      14.47005090  T      -0.32906508       0.52060557       0.57603857
Si       4.75763964       5.78071962      16.12792100  T      -0.53057468      -1.13268363      -0.01273093
Si       0.03476817       9.19956063      13.84017569  T       0.60172150       0.47550148      -0.70239909
Si       6.21851472       5.15948368      13.63284166  T       0.52913418       0.55763329      -0.13551985
Si       5.33455275       9.88164279      12.19419607  T      -0.70750744       0.60662590      -0.00648896
Si       8.41868869       7.01739074      12.65286957  T       1.01012427      -0.30254750      -0.37821140
Si       3.15939529       4.28229450      20.22888162  T      -0.29530079      -1.07547962      -0.35920386
Si       2.10552216       1.53242641      19.06324587  T       0.19417974       0.50031288       0.04057740
Si       0.49954096       2.74269002      16.89942775  T       0.54254536       1.13532732       0.74997181
Si       4.97160088       1.56013090      17.62510152  T       0.04156137       0.14850035      -0.53480025
Si       5.97340644       3.72071151      19.59373490  T       0.69513998       0.10944178      -1.56482227
Si       7.69305621       1.23705041      20.58622183  T      -0.21419791      -0.55460446       1.44306631
Si       2.56640882       8.78695632      20.43839128  T       0.24278185       0.88941359       0.79249326
Si       2.85222603       6.73958733      18.14652944  T      -0.24467722       0.38480023      -0.26906053
Si       1.11022942       6.13647156      21.31798682  T      -0.07474214       0.09776127      -0.77349633
Si       0.14488591       5.56367420      18.34372157  T       0.11550547       0.41061750      -1.15246721
Si       6.08234421       9.30902070      22.44240611  T      -0.68154460       1.14011984      -0.78382135
Si       7.06431847       6.24845402      18.19056310  T      -0.25824705      -0.38719667       0.26120214
Si       7.18653873       9.47372061      18.11452525  T      -0.18906534       0.00575240      -0.19655114
Si       2.10000000       3.98000000       2.32000000  F       0.00000000       0.00000000       0.00000000
Si       2.85052348       3.67677551       4.99602386  T      -0.35853918       1.37264896      -0.12771271
Si       0.89000000       1.15000000       1.77000000  F       0.00000000       0.00000000       0.00000000
Si       8.42854029       1.04772309       5.62976594  T       0.54290158      -0.97147874       0.33213301
Si       5.52862787       2.00665496       4.42908411  T      -0.45390823       0.61080396       0.49056480
Si       4.81111704       5.81937323       6.14896685  T       0.01119291       0.54919625      -0.07704022
Si       0.09670329       9.21757662       3.95941201  T       1.82353175       0.95987699      -0.54297305
Si       6.20487611       5.10060752       3.61858009  T       0.43315012      -0.63736068       0.28865357
Si       5.42000000       9.77000000       2.06000000  F       0.00000000       0.00000000       0.00000000
Si       8.43861065       7.02322752       2.74703807  T      -0.44092820       0.36268540       0.04686548
Si       3.64436061       4.28728714       9.89903857  T      -1.12962138       0.35573961      -0.19653675
Si       2.24549796       1.62995920       8.95464531  T       0.30513132       0.13469865      -0.50921734
Si       0.53403015       2.79667806       7.00991928  T       0.81288116      -0.73346499      -0.08826013
Si       5.09454736       1.22013833       7.47708283  T       1.58736406      -0.29277026       0.29891466
Si       6.56774886       3.46275162       9.10269194  T      -0.23336505      -0.03874151       0.75574280
Si       7.85634050       0.97606393      10.46379095  T      -0.39654618       0.96942433      -0.13282036
Si       3.53190579       8.19954031      10.41844107  T       0.29350853      -0.33408472       0.30953880
Si       2.95707612       6.88068898       8.03418967  T      -0.29718534      -0.27200602       0.25138822
Si       0.91447015       6.39598535      11.00176568  T       0.66253858      -0.39543225      -0.64546422
Si       0.29725406       5.78631666       7.96744087  T       0.20685699       0.27706109       0.40431591
Si       5.89574269       7.05793996      11.64321115  T       0.50635670      -0.34639404       1.44840972
Si       7.42470027       6.10051707       7.78227663  T       0.75173363       0.31391684      -0.18248287
Si       7.34850771       9.29369593       8.03019173  T      -0.44198799       0.28011757      -0.06759848
Si       7.93000000       1.02000000       0.50000000  F       0.00000000       0.00000000       0.00000000
Si       0.91000000       6.44000000       0.98000000  F       0.00000000       0.00000000       0.00000000
Si       5.91000000       7.08000000       1.49000000  F       0.00000000       0.00000000       0.00000000
C        4.98483506       4.99689906      22.53081014  T      -0.66506123       0.08970601     -13.08447416
F        5.79248951       6.06215874      22.54391610  T       0.28665428      -0.13686626     -20.87167047
F        5.79670131       3.94214738      22.55641026  T       0.66815902      -0.13834789     -20.22135738
153
Lattice="10.0 0.0 0.0 0.0 10.0 0.0 0.0 0.0 43.74" Properties=species:S:1:pos:R:3:move_mask:L:1:momenta:R:3 etch=trj_CF2_30eV_case1 idx=0 index=0 source=trj_CF2_30eV_case1/0000/OUTCAR converged=T time_fs=40.0 pbc="T T T"
O        2.16851724       4.61778173      13.88546101  T      -0.30426657      -0.57915961      -0.07134335
O        1.42684865       2.46657432      12.27618846  T      -0.35179221       0.29723514      -0.88703558
O        3.80789541       2.57652736      14.27223200  T      -0.51990010       0.52104768      -0.13822043
O        3.72053278       4.49514594      16.13235887  T       0.30920426       0.05936996       0.35728088
O        1.74962591       2.87818794      15.88130114  T      -0.73223897      -0.50839678       0.32134636
O        5.04677242       1.72715401      16.04322304  T       0.23477705       0.11422981       1.20783600
O        5.03140411       0.97924472      13.31498289  T       0.14248757       0.43488792       0.20724229
O        6.14365141       3.61255146      14.03458540  T      -0.08594146      -0.37180693      -0.20757241
O        7.15902121       1.49757073      14.75913336  T       0.84463129       0.57851321       0.20075243
O        8.94395167       2.35316805      16.45171244  T      -0.30134096       0.65648398       0.42879860
O        9.65543605       0.45760132      14.83565689  T       0.41920509       0.52014824       0.69434990
O        0.90306337       9.78830885      12.59706294  T      -0.41649816       0.37019739      -0.07763515
O        1.09911077       8.14145678      14.70354446  T      -0.51140095      -0.70271986       0.58741698
O       10.01138308       6.88050297      12.28861783  T       0.00152567      -0.74280388       0.62351284
O        5.34866973       6.06241892      14.65209191  T       0.33030712      -1.24547023       0.59857365
O        5.65165596       5.48949472      12.10306469  T       0.19510504      -0.57908566       0.27826428
O        7.72381871       5.86254951      13.59564596  T       0.10410929       0.29200099      -0.63498257
O        5.59334660       8.27749440      12.76345451  T       0.03259851       1.20485891       1.65203527
O        8.62056847       8.37444387      13.58976406  T      -0.00039769       0.55972424      -0.49259948
O        2.42949402       5.10597868      21.43168044  T      -0.42529630      -0.30530781      -1.03419672
O        0.24857010       6.10625930      22.64098059  T       0.21047559      -0.70472030      -0.81436252
O        1.90056272       0.24468895      20.08768371  T       0.32121929       0.73611008       0.02888868
O        2.35533500       2.85779259      19.95405127  T       1.74196339       0.84365093       0.59666642
O        3.48131903       1.31408660      18.17623754  T       0.18344717       0.31994350      -0.58970684
O        0.79953042       1.61348507      18.07579534  T       0.02093213       0.01969450       0.44574016
O        0.37488916       4.09087346      17.81365010  T      -0.39180825       0.88479091       0.26412065
O        9.07664117       1.40635237      21.44260682  T      -0.15540072       0.48418276      -0.02954668
O        5.49064078       3.03413578      18.21074243  T       0.75658910      -0.45584581      -0.51735301
O        4.70499535       3.91354751      20.66914749  T       0.40820873      -0.23175156      -0.29147760
O        7.07281310       2.75249779      20.36383211  T       0.10084080       0.08841562       0.15335669
O        6.50848226       0.50859197      21.50956893  T       0.79545665       0.26187991       0.16554291
O        6.59288414       5.22176522      19.38112363  T      -0.39373710      -0.41974506       0.30801038
O        7.94132156       9.84480562      16.74862206  T       0.42147673       0.62506788      -0.55971649
O        3.82423714       6.93874062      16.83128818  T      -0.45053897      -0.60332302       0.20841981
O        3.82986081       9.37725218      21.34661216  T       0.23504509      -0.04347695      -0.57484493
O        3.25628112       8.01575076      19.13221852  T      -0.29509889       0.12524471       0.25282847
O        1.29467479       6.61873244      17.80156975  T      -0.58799005      -0.66746535       0.80646067
O        3.22009777       5.28569962      18.93361451  T       0.27611116      -0.02278049       0.96939807
O        0.16390530       5.61219440      20.00177408  T      -0.18017928       0.91223959       0.62086251
O        1.53190824       7.74857902      21.18751928  T       0.17644417      -0.68266026       0.58658930
O        4.65069298       8.34147170      22.01688779  T      -0.30866385      -0.45037949       0.56389605
O        8.06302420       0.21342700      19.34990196  T      -0.06239361       0.25072744      -0.17230274
O        6.84969259       8.76466265      23.67205027  T      -0.66277901      -0.62407515      -0.36418663
O        6.17378214       5.80637215      16.92489074  T      -0.04622093      -0.25407343       0.72751683
O        5.71587727       0.21044266      18.21310731  T      -0.07593098      -0.08511283      -0.24722250
O        8.66793880       6.08281984      17.91687747  T      -0.35631864       0.41883311      -0.22448344
O        6.92308571       7.87783133      18.41364947  T      -0.52402567       0.58846764       0.31980304
O        2.03606819       4.57774222       3.85049463  T      -0.60455334      -1.72226944      -0.37182399
O        1.57613056       2.48010626       2.07522876  T       0.85087036      -0.34909092      -2.58427629
O        3.83548697       2.69659392       4.16549190  T      -0.78878503       0.46523219       0.15095308
O        3.80032867       4.52818379       6.10561441  T      -0.69519951      -1.25840220      -0.86646817
O        1.61852833       2.97357266       5.79983995  T      -0.33760895       0.34402674       0.20372124
O        4.93613141       1.34110690       5.86841127  T       0.43564046       0.39592057      -0.58869355
O        5.23649232       0.93608543       3.15936161  T       0.88000976       0.42565050      -0.14128265
O        6.19039266       3.56205747       4.00650680  T       0.00263413      -0.53916776      -0.97541151
O        7.16267659       1.60117896       4.85791500  T       1.32611254       0.70566574       0.70683774
O        9.07093861       2.30697229       6.42766156  T       0.56719013       0.87641272       1.64391854
O        9.66126027       0.63378586       4.58997031  T       0.16450235       0.67209576      -0.85665911
O        1.03248681       9.71141877       2.50003677  T       0.49900803       0.00298858       0.22230215
O        1.13326997       8.06718900       4.67209043  T      -0.50346016      -0.60130983       0.34869921
O        9.87000000       6.98000000       2.02000000  F       0.00000000       0.00000000       0.00000000
O        5.35430455       6.02768431       4.62503893  T       0.52925404      -0.12132104       0.09141016
O        5.59000000       5.63000000       2.17000000  F       0.00000000       0.00000000       0.00000000
O        7.73546320       5.81428150       3.57348028  T       0.40321742      -0.06680770      -0.46573951
O        5.56121919       8.21689089       2.54540013  T      -0.58197605      -0.12906102       1.33399930
O        8.66803654       8.44455484       3.56923646  T       0.22864699       0.39263761      -0.14316325
O        3.48322488       4.12718501      11.55993922  T      -0.21050757      -0.27053939       0.39617045
O        1.10176272       4.85484235      11.41752412  T      -0.29628448      -0.16992980       0.29791421
O        1.76317129       0.84462756      10.27437635  T      -0.17238669      -0.93653720       0.01038993
O        2.67349447       3.18314982       9.24803910  T      -0.67416446       0.91719212      -0.47988007
O        3.64002853       1.07901278       8.27726345  T      -0.35114257       0.88870249       0.73679388
O        0.93005729       1.59740155       7.99281585  T      -0.05498611      -0.39608956       0.57530179
O        0.45922540       4.16888484       7.81781733  T       0.15455676      -0.09459485      -0.27346114
O        9.25311845       1.28546198      11.24544781  T      -0.74409037      -0.54541742      -0.88340747
O        6.03151147       2.54249153       7.85812365  T       0.35330726       0.15720930       0.77486839
O        5.26726115       4.08004726       9.83664869  T      -0.22543367      -0.08005955       0.26489355
O        7.45139313       2.47784824      10.00064571  T       0.30715954       0.21530624      -0.26572300
O        6.66182098       0.24244523      11.30402441  T      -1.55010167       0.30845527       0.77292450
O        7.45662699       4.79339140       8.73923706  T       0.02304201      -0.71404153      -0.35226939
O        8.03159677       9.84811267       6.65332588  T       0.40637428       0.15262763      -0.12502605
O        4.06694599       7.08501341       6.84970846  T       0.82864325      -0.60280210      -0.68810497
O        4.09337354       9.63213447      11.10913375  T       0.14500908       0.12611201      -0.75062402
O        3.01343770       8.28265932       8.88958621  T      -0.54136951      -0.11481923       0.32008591
O        1.54417875       6.58331761       7.16589874  T      -0.04878298      -0.24924762      -1.50478243
O        3.23478460       5.67386125       9.12640253  T      -0.87422497      -0.18204514       0.51598002
O        0.18942740       6.26944553       9.53115204  T       1.24859822      -0.91982083       0.65775582
O        2.31078923       7.36195833      11.17800117  T      -0.94519472      -0.74046713       0.36901003
O        4.91408705       7.28170255      10.40385104  T      -1.20406343      -0.59372807      -0.29360840
O        8.31809953      -0.03275205       9.22443567  T       0.28257687      -1.34437101      -0.22274977
O        7.51976501       7.15581537      11.31086644  T       0.43068166      -0.22057099       0.37091507
O        6.24032777       5.56008184       6.82936799  T       0.17086260       0.51287351      -0.25128364
O        5.85870529       9.85823599       7.96303020  T       0.22898783       0.03558665       0.10724389
O        8.94899158       6.16983446       7.12706136  T      -0.55805129       1.06863980      -0.77900078
O        7.14593945       7.65490187       8.21998158  T      -0.36086394       0.23503919       0.40688895
O        3.55000000       4.18000000       1.53000000  F       0.00000000       0.00000000       0.00000000
O        1.14000000       4.89000000       1.35000000  F       0.00000000       0.00000000       0.00000000
O        9.29000000       1.31000000       1.44000000  F       0.00000000       0.00000000       0.00000000
O        6.84000000       0.20000000       1.30000000  F       0.00000000       0.00000000       0.00000000
O        3.95000000       9.60000000       1.25000000  F       0.00000000       0.00000000       0.00000000
O        2.28000000       7.42000000       1.08000000  F       0.00000000       0.00000000       0.00000000
O        7.52000000       7.21000000       1.37000000  F       0.00000000       0.00000000       0.00000000
Si       2.05530925       3.98614579      12.38748148  T      -1.05663193       0.07368288       0.11009500
Si       2.89802673       3.65991134      14.99887711  T      -0.20128347       0.02848256      -0.42025572
Si       0.82887644       1.09158095      11.60610176  T       0.43057004      -0.60981363      -2.16376801
Si       8.36570465       1.00743901      15.67010319  T       0.62703478      -0.33261418       1.38748243
Si       5.56116127       2.10969052      14.47211833  T      -0.44916510       0.42830423       0.60702908
Si       4.75570975       5.77683175      16.12789161  T      -0.57063830      -1.08930948      -0.00176061
Si       0.03689556       9.20110318      13.83796423  T       0.61322031       0.40683671      -0.55863396
Si       6.22038894       5.16147343      13.63220951  T       0.54332383       0.57546430      -0.22472738
Si       5.33212390       9.88349399      12.19414757  T      -0.68316984       0.45273042      -0.01847973
Si       8.42236478       7.01637250      12.65176273  T       1.09206535      -0.27799053      -0.25298387
Si       3.15817253       4.27846725      20.22750378  T      -0.40319141      -1.10925411      -0.42885135
Si       2.10628938       1.53396334      19.06330895  T       0.24635233       0.38040108      -0.00418847
Si       0.50127747       2.74656767      16.90221009  T       0.44656818       1.08050449       0.84131067
Si       4.97170759       1.56063533      17.62321318  T       0.02045577       0.13815216      -0.54133829
Si       5.97598834       3.72108073      19.58836560  T       0.78329912       0.09794127      -1.50578303
Si       7.69232384       1.23511862      20.59128445  T      -0.20267325      -0.54824088       1.44796217
Si       2.56722111       8.79003822      20.44097179  T       0.21935223       0.87065373       0.68292465
Si       2.85170252       6.74091019      18.14567864  T      -0.05562430       0.37036139      -0.21489332
Si       1.10995217       6.13675992      21.31499604  T      -0.08312053       0.06632511      -0.93706009
Si       0.14519226       5.56527998      18.33985854  T       0.05606040       0.50926239      -1.05069145
Si       6.07988151       9.31263183      22.43987156  T      -0.72644738       0.92174707      -0.66257767
Si       7.06358018       6.24718457      18.19141538  T      -0.16393534      -0.33615847       0.22735427
Si       7.18578461       9.47378490      18.11407428  T      -0.24082617       0.03297333      -0.06280593
Si       2.10000000       3.98000000       2.32000000  F       0.00000000       0.00000000       0.00000000
Si       2.84944092       3.68155241       4.99575287  T      -0.26262194       1.35471927      -0.02674717
Si       0.89000000       1.15000000       1.77000000  F       0.00000000       0.00000000       0.00000000
Si       8.43036348       1.04445294       5.63098028  T       0.50423660      -0.89262085       0.36384831
Si       5.52694720       2.00879364       4.43083140  T      -0.50517048       0.61187760       0.50627915
Si       4.81117324       5.82127070       6.14850068  T       0.02117208       0.52958238      -0.19120854
Si       0.10333724       9.22057808       3.95739678  T       1.96761283       0.75527544      -0.60881258
Si       6.20643764       5.09853083       3.61964677  T       0.46012765      -0.54929617       0.31944929
Si       5.42000000       9.77000000       2.06000000  F       0.00000000       0.00000000       0.00000000
Si       8.43698819       7.02466241       2.74725893  T      -0.48488445       0.45889272       0.07913298
Si       3.64058941       4.28846040       9.89862881  T      -1.02501116       0.31375589      -0.03512566
Si       2.24681207       1.63045638       8.95280698  T       0.44383741       0.15074681      -0.53887402
Si       0.53667410       2.79409342       7.00930874  T       0.69914157      -0.74336319      -0.25878276
Si       5.09999939       1.21919349       7.47814782  T       1.52686872      -0.24501171       0.30856035
Si       6.56683880       3.46271641       9.10522727  T      -0.28720238       0.02006057       0.69393566
Si       7.85510496       0.97940377      10.46333377  T      -0.31348009       0.93481563      -0.12911943
Si       3.53305172       8.19845425      10.41974817  T       0.35817544      -0.28709323       0.43876003
Si       2.95591828       6.87977407       8.03493094  T      -0.36415665      -0.25103224       0.16988949
Si       0.91694912       6.39472863      10.99966071  T       0.75409427      -0.32378571      -0.55312429
Si       0.29801327       5.78729375       7.96863971  T       0.22566179       0.28002335       0.27808527
Si       5.89751784       7.05672269      11.64839574  T       0.50517451      -0.34657280       1.51363348
Si       7.42746295       6.10164703       7.78153978  T       0.82542676       0.33139378      -0.23796766
Si       7.34717671       9.29460842       8.03002416  T      -0.31593266       0.23982014      -0.02867919
Si       7.93000000       1.02000000       0.50000000  F       0.00000000       0.00000000       0.00000000
Si       0.91000000       6.44000000       0.98000000  F       0.00000000       0.00000000       0.00000000
Si       5.91000000       7.08000000       1.49000000  F       0.00000000       0.00000000       0.00000000
C        4.97987649       4.99758349      22.42403898  T      -0.54169534       0.07527570     -13.02406054
F        5.79388617       6.06129364      22.43594221  T       0.25240077      -0.19737885     -20.89669035
F        5.80031692       3.94155298      22.45238703  T       0.73466386      -0.08942008     -20.00503012
153
Lattice="10.0 0.0 0.0 0.0 10.0 0.0 0.0 0.0 43.74" Properties=species:S:1:pos:R:3:move_mask:L:1:momenta:R:3 etch=trj_CF2_30eV_case1 idx=0 index=0 source=trj_CF2_30eV_case1/0000/OUTCAR converged=T time_fs=41.0 pbc="T T T"
O        2.16658917       4.61417289      13.88498825  T      -0.32433426      -0.59512111      -0.08164691
O        1.42464975       2.46836227      12.27090006  T      -0.36540354       0.28304874      -0.83623334
O        3.80475916       2.58006297      14.27127233  T      -0.49981464       0.62876228      -0.17419180
O        3.72267798       4.49570401      16.13454931  T       0.38664069       0.11932718       0.35499082
O        1.74484139       2.87506176      15.88324853  T      -0.82243980      -0.50784358       0.31082306
O        5.04839381       1.72780587      16.05063617  T       0.29386738       0.09911997       1.19894476
O        5.03264968       0.98170182      13.31613331  T       0.26257845       0.36523430       0.16762804
O        6.14316457       3.61030423      14.03325270  T      -0.07225503      -0.35725528      -0.22717450
O        7.16402998       1.50103747      14.76017392  T       0.78541302       0.55083619       0.13855019
O        8.94249652       2.35723673      16.45427591  T      -0.17138194       0.66882787       0.40706417
O        9.65810531       0.46054347      14.83969323  T       0.45141723       0.43648361       0.61899177
O        0.90050669       9.79060107      12.59653541  T      -0.41541429       0.37716576      -0.09561949
O        1.09572552       8.13736182      14.70697828  T      -0.59184009      -0.63039230       0.53050133
O       10.01128246       6.87589667      12.29204411  T      -0.03206526      -0.75804922       0.49095550
O        5.35036410       6.05484033      14.65578200  T       0.22161536      -1.22169653       0.60281112
O        5.65294728       5.48618957      12.10512225  T       0.22489440      -0.49585867       0.39040931
O        7.72465302       5.86427837      13.59174468  T       0.16700757       0.27029289      -0.63454057
O        5.59356040       8.28503616      12.77336766  T       0.03718578       1.24741241       1.57395692
O        8.62062373       8.37808137      13.58667625  T       0.01862633       0.62449150      -0.51355387
O        2.42667561       5.10427001      21.42526891  T      -0.49228746      -0.25163736      -1.05283617
O        0.24959199       6.10186134      22.63640467  T       0.12174276      -0.72805491      -0.67487513
O        1.90255793       0.24909915      20.08773116  T       0.32876928       0.69938837      -0.01255051
O        2.36611808       2.86335988      19.95781960  T       1.76683843       0.96101641       0.62739692
O        3.48206153       1.31609137      18.17272378  T       0.05648220       0.33339759      -0.55335204
O        0.79997352       1.61357096      18.07859708  T       0.12314220       0.00974158       0.46691404
O        0.37254937       4.09627764      17.81508928  T      -0.36958309       0.87171746       0.20365777
O        9.07577172       1.40935853      21.44243429  T      -0.12713301       0.49506844      -0.02618079
O        5.49531917       3.03122894      18.20766791  T       0.76721290      -0.48926644      -0.48274062
O        4.70709338       3.91215929      20.66652994  T       0.26452066      -0.21995912      -0.57460288
O        7.07340969       2.75290955      20.36450114  T       0.09332549       0.04514438       0.06330106
O        6.51323347       0.51027481      21.51040632  T       0.74975037       0.28516931       0.10866548
O        6.59045438       5.21919779      19.38310922  T      -0.39653887      -0.41384809       0.33765116
O        7.94394142       9.84850220      16.74510257  T       0.42928709       0.57516221      -0.58097709
O        3.82134365       6.93501444      16.83268551  T      -0.49104074      -0.61001295       0.24552897
O        3.83131638       9.37710254      21.34323410  T       0.24021530      -0.00508792      -0.52433792
O        3.25416221       8.01643967      19.13381173  T      -0.39532714       0.09896839       0.26537150
O        1.29079001       6.61465533      17.80639902  T      -0.67255844      -0.65770711       0.76534734
O        3.22181370       5.28571957      18.93944950  T       0.28269864       0.03148797       0.92846509
O        0.16318210       5.61793485      20.00577006  T      -0.05691692       0.95664296       0.67580928
O        1.53318399       7.74436041      21.19095149  T       0.24112850      -0.68761175       0.53016001
O        4.64925872       8.33915144      22.02038402  T      -0.15899827      -0.30383366       0.57417842
O        8.06241926       0.21503304      19.34886943  T      -0.13491673       0.27264102      -0.16346442
O        6.84541816       8.76094469      23.66959989  T      -0.72997609      -0.58640002      -0.43480140
O        6.17348125       5.80461576      16.92942819  T      -0.05421667      -0.31818545       0.74874883
O        5.71554759       0.21004506      18.21146715  T      -0.03182526      -0.04416812      -0.28700160
O        8.66570286       6.08532848      17.91542012  T      -0.37090711       0.39803254      -0.24973028
O        6.91986169       7.88148842      18.41564985  T      -0.52592926       0.59914379       0.33160047
O        2.03233324       4.56702360       3.84797780  T      -0.61353880      -1.76630271      -0.44723464
O        1.58150116       2.47793142       2.05944829  T       0.89990811      -0.35688474      -2.55592413
O        3.83067546       2.69951114       4.16645893  T      -0.77662908       0.48350198       0.16307522
O        3.79583647       4.52046883       6.10021145  T      -0.76287603      -1.24783845      -0.89055965
O        1.61659968       2.97565735       5.80110014  T      -0.28886533       0.33523838       0.20531456
O        4.93874416       1.34352828       5.86489850  T       0.41521483       0.39168196      -0.55061856
O        5.24211305       0.93865433       3.15865323  T       0.95053985       0.41139166      -0.08905841
O        6.19034734       3.55869945       4.00035347  T      -0.01736856      -0.55405332      -1.02858488
O        7.17061648       1.60534586       4.86197914  T       1.25642028       0.65295841       0.61581922
O        9.07464025       2.31255762       6.43788039  T       0.63357083       0.93685152       1.68041095
O        9.66228765       0.63776221       4.58474992  T       0.17034065       0.62280312      -0.84298155
O        1.03546104       9.71167052       2.50162180  T       0.47022808       0.07968055       0.29310097
O        1.12978943       8.06401818       4.67399554  T      -0.62989472      -0.43130581       0.27179292
O        9.87000000       6.98000000       2.02000000  F       0.00000000       0.00000000       0.00000000
O        5.35728939       6.02711788       4.62557675  T       0.44268596      -0.06354284       0.08365891
O        5.59000000       5.63000000       2.17000000  F       0.00000000       0.00000000       0.00000000
O        7.73812912       5.81381149       3.57062681  T       0.46388122      -0.08742213      -0.46284228
O        5.55760445       8.21626751       2.55389099  T      -0.59436539      -0.07517862       1.42890184
O        8.66942890       8.44687430       3.56836600  T       0.22583855       0.36316355      -0.14028962
O        3.48175700       4.12557158      11.56218451  T      -0.26757191      -0.25467102       0.33424958
O        1.09987137       4.85378985      11.41925262  T      -0.32033846      -0.17226036       0.26457605
O        1.76203221       0.83873982      10.27459452  T      -0.19624794      -0.98004557       0.05654054
O        2.66924190       3.18869567       9.24504272  T      -0.71175818       0.88706497      -0.49619219
O        3.63800787       1.08448326       8.28159590  T      -0.30157941       0.89177858       0.67164285
O        0.93001977       1.59478539       7.99650823  T       0.04254101      -0.45527038       0.62636807
O        0.46012339       4.16864291       7.81635325  T       0.13768829       0.01727389      -0.20314494
O        9.24857714       1.28203199      11.24013795  T      -0.73054882      -0.57161754      -0.84434403
O        6.03353821       2.54335955       7.86285337  T       0.30565149       0.12355831       0.76393838
O        5.26556483       4.07951464       9.83813295  T      -0.32768503      -0.09317517       0.21865381
O        7.45327079       2.47912777       9.99914579  T       0.30442309       0.20133322      -0.22236892
O        6.65253354       0.24453812      11.30866884  T      -1.46872899       0.37605580       0.73495775
O        7.45691954       4.78888806       8.73742107  T       0.07286187      -0.75003591      -0.24068208
O        8.03428471       9.84876187       6.65244415  T       0.46806777       0.05694520      -0.15998544
O        4.07209017       7.08116772       6.84552583  T       0.84206647      -0.64706032      -0.66975902
O        4.09397376       9.63267310      11.10447492  T       0.05028992       0.04909786      -0.76615810
O        3.01002894       8.28192514       8.89132937  T      -0.56881900      -0.12503839       0.24741027
O        1.54395504       6.58168670       7.15730573  T      -0.02322002      -0.28169525      -1.29253853
O        3.22934644       5.67277261       9.12940746  T      -0.89738688      -0.17046212       0.46126088
O        0.19721452       6.26400200       9.53521057  T       1.28594773      -0.85311856       0.65964363
O        2.30468037       7.35731263      11.18018415  T      -1.04039751      -0.76975078       0.34084835
O        4.90663604       7.27811672      10.40189802  T      -1.21693588      -0.57617261      -0.33678376
O        8.31938095      -0.04107506       9.22302790  T       0.13381168      -1.36378364      -0.23271275
O        7.52230809       7.15454704      11.31306583  T       0.39536868      -0.19225397       0.34442114
O        6.24134692       5.56325562       6.82789990  T       0.16121869       0.52055846      -0.22648594
O        5.85976556       9.85856912       7.96381623  T       0.11517040       0.07303241       0.14858634
O        8.94544606       6.17642942       7.12241817  T      -0.59226372       1.07858659      -0.73143257
O        7.14381586       7.65649723       8.22248527  T      -0.33086823       0.28342367       0.40828044
O        3.55000000       4.18000000       1.53000000  F       0.00000000       0.00000000       0.00000000
O        1.14000000       4.89000000       1.35000000  F       0.00000000       0.00000000       0.00000000
O        9.29000000       1.31000000       1.44000000  F       0.00000000       0.00000000       0.00000000
O        6.84000000       0.20000000       1.30000000  F       0.00000000       0.00000000       0.00000000
O        3.95000000       9.60000000       1.25000000  F       0.00000000       0.00000000       0.00000000
O        2.28000000       7.42000000       1.08000000  F       0.00000000       0.00000000       0.00000000
O        7.52000000       7.21000000       1.37000000  F       0.00000000       0.00000000       0.00000000
Si       2.05172481       3.98622269      12.38762136  T      -0.99203386      -0.03052603      -0.03079098
Si       2.89730885       3.65983832      14.99758599  T      -0.21054668      -0.07028003      -0.31505092
Si       0.83040650       1.08961228      11.59851381  T       0.44105653      -0.51457872      -2.17179406
Si       8.36790646       1.00643144      15.67498031  T       0.63231240      -0.23971719       1.39807261
Si       5.55938734       2.11101855      14.47430094  T      -0.56421543       0.33016600       0.64155567
Si       4.75366244       5.77310756      16.12792200  T      -0.59753301      -1.03895641       0.02137424
Si       0.03904894       9.20240820      13.83628689  T       0.61677975       0.33978565      -0.39765942
Si       6.22231947       5.16348180      13.63127864  T       0.56136000       0.56840935      -0.30575664
Si       5.32976354       9.88481472      12.19408217  T      -0.66836593       0.30349513      -0.01643523
Si       8.42632732       7.01545661      12.65110873  T       1.17368747      -0.24392705      -0.11974530
Si       3.15657760       4.27456034      20.22588016  T      -0.50872098      -1.12010404      -0.50000165
Si       2.10725555       1.53509946      19.06321970  T       0.30779755       0.27155902      -0.04611423
Si       0.50264318       2.75023944      16.90531401  T       0.33093058       1.01773751       0.93383447
Si       4.97174909       1.56108648      17.62133751  T       0.00402799       0.11793801      -0.52719666
Si       5.97889842       3.72137433      19.58319873  T       0.88320522       0.06605263      -1.44975296
Si       7.69165000       1.23322626      20.59632799  T      -0.18063879      -0.53202311       1.43245302
Si       2.56793006       8.79303349      20.44316806  T       0.18393593       0.83999369       0.57311051
Si       2.85182808       6.74217040      18.14504045  T       0.12535285       0.34898789      -0.14775288
Si       1.10965083       6.13693177      21.31143362  T      -0.08890757       0.03148175      -1.09921850
Si       0.14525714       5.56724461      18.33640517  T      -0.02249613       0.61531806      -0.91861853
Si       6.07726425       9.31545346      22.43778524  T      -0.76995743       0.68981341      -0.52868051
Si       7.06317080       6.24611707      18.19216044  T      -0.07049142      -0.27189506       0.19989743
Si       7.18486287       9.47396297      18.11407611  T      -0.28462860       0.07087934       0.06199259
Si       2.10000000       3.98000000       2.32000000  F       0.00000000       0.00000000       0.00000000
Si       2.84867287       3.68622682       4.99583813  T      -0.17911756       1.31400504       0.07544885
Si       0.89000000       1.15000000       1.77000000  F       0.00000000       0.00000000       0.00000000
Si       8.43209385       1.04151214       5.63231905  T       0.48971338      -0.78369907       0.40285740
Si       5.52510536       2.01093350       4.43261159  T      -0.54623664       0.61154830       0.50926822
Si       4.81126681       5.82304125       6.14762032  T       0.03268813       0.47672015      -0.31362178
Si       0.11045137       9.22285487       3.95515743  T       2.09767978       0.54621082      -0.67093949
Si       6.20809664       5.09676970       3.62080391  T       0.48888524      -0.45712365       0.34044259
Si       5.42000000       9.77000000       2.06000000  F       0.00000000       0.00000000       0.00000000
Si       8.43523079       7.02644317       2.74758957  T      -0.51797544       0.56031748       0.10954761
Si       3.63719959       4.28947421       9.89880616  T      -0.91226122       0.26478128       0.13843402
Si       2.24858711       1.63101976       8.95089512  T       0.56841477       0.17236289      -0.55097861
Si       0.53892360       2.79148563       7.00812445  T       0.58812191      -0.74651141      -0.41527619
Si       5.10520837       1.21843877       7.47923226  T       1.44863245      -0.18418993       0.31004063
Si       6.56573935       3.46289944       9.10754616  T      -0.34152528       0.08570556       0.63227111
Si       7.85412717       0.98257136      10.46288454  T      -0.24918677       0.87134101      -0.12836567
Si       3.53438845       8.19753083      10.42151277  T       0.40203881      -0.24126628       0.57033324
Si       2.95453393       6.87893364       8.03536421  T      -0.42650031      -0.22948552       0.07574849
Si       0.91973892       6.39371599      10.99792504  T       0.84005329      -0.25623864      -0.43479256
Si       0.29882320       5.78826652       7.96937025  T       0.23592784       0.27485355       0.13738355
Si       5.89925625       7.05553371      11.65378228  T       0.48561693      -0.33028857       1.56361133
Si       7.43045780       6.10282990       7.78061853  T       0.88420615       0.34407296      -0.28754397
Si       7.34631389       9.29536351       8.02998768  T      -0.17515721       0.19042428       0.00709560
Si       7.93000000       1.02000000       0.50000000  F       0.00000000       0.00000000       0.00000000
Si       0.91000000       6.44000000       0.98000000  F       0.00000000       0.00000000       0.00000000
Si       5.91000000       7.08000000       1.49000000  F       0.00000000       0.00000000       0.00000000
C        4.97604567       4.99810066      22.31783741  T      -0.39071016       0.04925595     -12.94381021
F        5.79509128       6.06012314      22.32782105  T       0.21308589      -0.25452909     -20.92900426
F        5.80434885       3.94123925      22.34966899  T       0.83271952      -0.03025596     -19.71327046
153
Lattice="10.0 0.0 0.0 0.0 10.0 0.0 0.0 0.0 43.74" Properties=species:S:1:pos:R:3:move_mask:L:1:momenta:R:3 etch=trj_CF2_30eV_case1 idx=0 index=0 source=trj_CF2_30eV_case1/0000/OUTCAR converged=T time_fs=42.0 pbc="T T T"
O        2.16453004       4.61048653      13.88446868  T      -0.34682457      -0.60464107      -0.08662693
O        1.42235321       2.47002843      12.26591467  T      -0.38348951       0.25768498      -0.78832645
O        3.80177912       2.58422628      14.27009485  T      -0.46879615       0.72515813      -0.20923579
O        3.72524852       4.49657757      16.13670480  T       0.44748807       0.16178968       0.34590990
O        1.73956718       2.87197337      15.88509560  T      -0.89176291      -0.49619932       0.28876302
O        5.05038474       1.72838129      16.05786263  T       0.35497547       0.08930236       1.14717150
O        5.03462035       0.98372752      13.31704346  T       0.37850370       0.29455735       0.12918469
O        6.14276787       3.60819362      14.03179013  T      -0.05664852      -0.32764463      -0.24977155
O        7.16865111       1.50433452      14.76083942  T       0.71875222       0.52316088       0.07884335
O        8.94185804       2.36137888      16.45671836  T      -0.03580789       0.68022768       0.38924611
O        9.66098793       0.46294560      14.84324500  T       0.48823977       0.34482092       0.53709169
O        0.89797134       9.79294648      12.59587553  T      -0.40970159       0.38743245      -0.12050769
O        1.09183977       8.13372362      14.71005265  T      -0.67421923      -0.55414842       0.47050392
O       10.01101143       6.87119215      12.29463159  T      -0.05415467      -0.77465906       0.35071576
O        5.35139226       6.04743323      14.65948560  T       0.11359535      -1.18975239       0.60271683
O        5.65440968       5.48342293      12.10784060  T       0.25062923      -0.40381478       0.49318872
O        7.72586183       5.86585911      13.58786854  T       0.22595878       0.24370648      -0.62670850
O        5.59380434       8.29276595      12.78274980  T       0.04236291       1.26621617       1.47944260
O        8.62079885       8.38210384      13.58345522  T       0.03851689       0.68496446      -0.53598802
O        2.42345621       5.10288417      21.41876863  T      -0.55559108      -0.20037059      -1.06307944
O        0.25006112       6.09731838      22.63270348  T       0.03100147      -0.75192324      -0.53030560
O        1.90459993       0.25326554      20.08753883  T       0.33642397       0.65678248      -0.04918876
O        2.37698820       2.86949608      19.96171800  T       1.76981007       1.02789902       0.63879133
O        3.48199722       1.31818323      18.16945701  T      -0.07847675       0.34830670      -0.50963054
O        0.80103857       1.61361953      18.08152806  T       0.22330567       0.00751582       0.48778018
O        0.37035856       4.10153984      17.81614206  T      -0.34342371       0.83911326       0.13863134
O        9.07508653       1.41243120      21.44228977  T      -0.09551535       0.50585548      -0.02051183
O        5.50005888       3.02814671      18.20482994  T       0.77646576      -0.51296329      -0.44025142
O        4.70812046       3.91085140      20.66193843  T       0.05670637      -0.20564047      -0.93763104
O        7.07395768       2.75304616      20.36459601  T       0.08506545      -0.00120003      -0.03370825
O        6.51766156       0.51207867      21.51092033  T       0.68999306       0.30069334       0.06067727
O        6.58802793       5.21671143      19.38525701  T      -0.39261360      -0.39342819       0.36069581
O        7.94656520       9.85182772      16.74154814  T       0.42272105       0.50424111      -0.57104341
O        3.81821854       6.93125559      16.83428975  T      -0.52583676      -0.61388338       0.27570356
O        3.83282072       9.37719139      21.34018529  T       0.25072798       0.03417612      -0.46782105
O        3.25142615       8.01696427      19.13546858  T      -0.49592027       0.07179283       0.27350487
O        1.28647093       6.61068785      17.81095438  T      -0.72873901      -0.63155084       0.71736348
O        3.22356942       5.28610727      18.94498956  T       0.28942807       0.09669348       0.87405604
O        0.16318902       5.62392908      20.01001989  T       0.05728063       0.99476038       0.70338161
O        1.53488819       7.74017517      21.19401664  T       0.31575812      -0.67203824       0.46719222
O        4.64873479       8.33775586      22.02392976  T      -0.01236909      -0.14950321       0.58006350
O        8.06136560       0.21677644      19.34790045  T      -0.20844684       0.29540771      -0.15166440
O        6.84072821       8.75746732      23.66670724  T      -0.79764317      -0.54604184      -0.50751876
O        6.17309228       5.80246453      16.93406674  T      -0.07476444      -0.38260379       0.76063772
O        5.71548146       0.20990301      18.20958421  T       0.00965791      -0.00181886      -0.32624567
O        8.66339634       6.08770393      17.91381666  T      -0.37927304       0.37545676      -0.27202317
O        6.91663061       7.88515067      18.41771907  T      -0.52634159       0.59023390       0.34226946
O        2.02852048       4.55608475       3.84501376  T      -0.62980430      -1.79408341      -0.51701267
O        1.58719309       2.47574836       2.04384768  T       0.95541447      -0.35202386      -2.52577318
O        3.82597098       2.70251445       4.16748410  T      -0.75387401       0.49319966       0.16987365
O        3.79101596       4.51293240       6.09471163  T      -0.80204838      -1.20031741      -0.89771211
O        1.61499875       2.97769061       5.80234631  T      -0.23105007       0.32723093       0.19924832
O        4.94122712       1.34590472       5.86169950  T       0.39334858       0.38135743      -0.48685907
O        5.24815917       0.94113858       3.15827144  T       1.01848247       0.39796787      -0.03507037
O        6.19017988       3.55526253       3.99388167  T      -0.03712015      -0.56458680      -1.07914906
O        7.17806682       1.60920905       4.86546554  T       1.16719023       0.60666267       0.51897873
O        9.07866429       2.31841351       6.44824917  T       0.67182406       0.96474465       1.69275508
O        9.66335330       0.64142851       4.57962875  T       0.17691147       0.57098935      -0.82434116
O        1.03826506       9.71240339       2.50362542  T       0.44367140       0.15961086       0.35848794
O        1.12554165       8.06189395       4.67542778  T      -0.75307530      -0.26077537       0.19487057
O        9.87000000       6.98000000       2.02000000  F       0.00000000       0.00000000       0.00000000
O        5.35973755       6.02689995       4.62606348  T       0.35465943      -0.00790771       0.07449150
O        5.59000000       5.63000000       2.17000000  F       0.00000000       0.00000000       0.00000000
O        7.74114494       5.81319669       3.56780674  T       0.51709502      -0.11393345      -0.45486061
O        5.55393349       8.21595445       2.56291362  T      -0.60020015      -0.02821393       1.50703694
O        8.67081863       8.44901687       3.56751489  T       0.22770968       0.33509003      -0.13686177
O        3.47994132       4.12406146      11.56403461  T      -0.32360093      -0.23693480       0.26769298
O        1.09782478       4.85273325      11.42076771  T      -0.34671093      -0.17141681       0.22854457
O        1.76078756       0.83260799      10.27502666  T      -0.20656593      -1.01598708       0.07981789
O        2.66475003       3.19402035       9.24194768  T      -0.75177671       0.84555974      -0.51177927
O        3.63638023       1.08994708       8.28548232  T      -0.22347236       0.88654605       0.59174483
O        0.93057535       1.59182258       8.00049253  T       0.13782757      -0.50854487       0.66984185
O        0.46091363       4.16910703       7.81532384  T       0.11953510       0.13439009      -0.13233212
O        9.24419568       1.27844636      11.23509968  T      -0.69216333      -0.59607269      -0.79503454
O        6.03525253       2.54398978       7.86748499  T       0.25171352       0.08005890       0.74303868
O        5.26323482       4.07890548       9.83933388  T      -0.43131475      -0.10507507       0.17257581
O        7.45512943       2.48031968       9.99791933  T       0.30077457       0.18696749      -0.17686879
O        6.64385043       0.24708887      11.31299953  T      -1.35396068       0.45718916       0.67121556
O        7.45752759       4.78421311       8.73626613  T       0.12576039      -0.76963418      -0.13719070
O        8.03733223       9.84879367       6.65138386  T       0.52351512      -0.04822638      -0.18326397
O        4.07723489       7.07709817       6.84153071  T       0.82896883      -0.67565628      -0.62730293
O        4.09399049       9.63273643      11.09973635  T      -0.04472142      -0.02839328      -0.77629165
O        3.00645629       8.28111734       8.89262358  T      -0.59459922      -0.13870742       0.17441275
O        1.54390168       6.57986249       7.15004411  T       0.00653184      -0.31213554      -1.07163303
O        3.22376521       5.67178779       9.13205118  T      -0.92067498      -0.14864720       0.39861793
O        0.20519558       6.25897288       9.53920291  T       1.31176839      -0.78489219       0.63604342
O        2.29806154       7.35254007      11.18217431  T      -1.11086304      -0.78152352       0.30634894
O        4.89920730       7.27460889      10.39977435  T      -1.19693390      -0.56837236      -0.34939059
O        8.31973415      -0.04946637       9.22160999  T      -0.01936284      -1.36664785      -0.22609356
O        7.52459663       7.15345792      11.31508607  T       0.34799657      -0.16223964       0.31295476
O        6.24230841       5.56646898       6.82659154  T       0.15210291       0.52570404      -0.19929669
O        5.86011140       9.85913182       7.96485249  T      -0.00284525       0.10998053       0.18876835
O        8.94176657       6.18306740       7.11809985  T      -0.60175757       1.08271323      -0.67352560
O        7.14187713       7.65836782       8.22499038  T      -0.30063278       0.32438676       0.40731582
O        3.55000000       4.18000000       1.53000000  F       0.00000000       0.00000000       0.00000000
O        1.14000000       4.89000000       1.35000000  F       0.00000000       0.00000000       0.00000000
O        9.29000000       1.31000000       1.44000000  F       0.00000000       0.00000000       0.00000000
O        6.84000000       0.20000000       1.30000000  F       0.00000000       0.00000000       0.00000000
O        3.95000000       9.60000000       1.25000000  F       0.00000000       0.00000000       0.00000000
O        2.28000000       7.42000000       1.08000000  F       0.00000000       0.00000000       0.00000000
O        7.52000000       7.21000000       1.37000000  F       0.00000000       0.00000000       0.00000000
Si       2.04837511       3.98592841      12.38726315  T      -0.92276913      -0.13825640      -0.17436720
Si       2.89654560       3.65942104      14.99669028  T      -0.22745649      -0.16783985      -0.19436323
Si       0.83194218       1.08798840      11.59093140  T       0.43377406      -0.41302155      -2.16036998
Si       8.37012951       1.00578410      15.67986174  T       0.63928454      -0.12680680       1.38953451
Si       5.55722108       2.11199551      14.47660758  T      -0.67332814       0.22790532       0.67752072
Si       4.75154530       5.76957256      16.12805376  T      -0.61046587      -0.98102580       0.05604946
Si       0.04120253       9.20348246      13.83519714  T       0.61359371       0.27501170      -0.22340958
Si       6.22431987       5.16542342      13.63008299  T       0.58326234       0.53757699      -0.37559288
Si       5.32743852       9.88562316      12.19404592  T      -0.66284301       0.15996036      -0.00223945
Si       8.43057282       7.01467706      12.65093082  T       1.25357632      -0.19996801       0.01870387
Si       3.15461272       4.27066273      20.22400345  T      -0.61543923      -1.10291913      -0.57369871
Si       2.10845140       1.53587700      19.06299166  T       0.37744926       0.17558451      -0.08323140
Si       0.50357364       2.75367884      16.90874319  T       0.19822668       0.94776310       1.02720781
Si       4.97173930       1.56144910      17.61954970  T      -0.00917139       0.08748402      -0.49091286
Si       5.98218178       3.72151945      19.57821667  T       0.99724932       0.01285668      -1.40098027
Si       7.69107253       1.23140762      20.60128369  T      -0.14742133      -0.50618950       1.39800876
Si       2.56849633       8.79590180      20.44498240  T       0.13809719       0.79823100       0.46485882
Si       2.85256431       6.74334405      18.14465763  T       0.29260168       0.32093176      -0.06915712
Si       1.10933078       6.13697855      21.30731558  T      -0.09422519      -0.00480154      -1.25354190
Si       0.14501473       5.56958899      18.33346311  T      -0.11947846       0.72580574      -0.75886811
Si       6.07449702       9.31744909      22.43618037  T      -0.81223229       0.45059948      -0.38845764
Si       7.06308418       6.24529600      18.19282046  T       0.02028009      -0.19544951       0.17864476
Si       7.18380382       9.47429240      18.11449632  T      -0.31913061       0.11946739       0.17621163
Si       2.10000000       3.98000000       2.32000000  F       0.00000000       0.00000000       0.00000000
Si       2.84817208       3.69071891       4.99627849  T      -0.11016560       1.25049520       0.17567032
Si       0.89000000       1.15000000       1.77000000  F       0.00000000       0.00000000       0.00000000
Si       8.43381418       1.03900010       5.63380353  T       0.49817326      -0.64816362       0.44668713
Si       5.52313652       2.01307020       4.43437948  T      -0.57794359       0.61011056       0.49924382
Si       4.81140433       5.82457031       6.14629975  T       0.04642867       0.39186078      -0.44256153
Si       0.11799269       9.22439818       3.95270880  T       2.21150369       0.33656325      -0.72828730
Si       6.20985926       5.09533650       3.62201783  T       0.51935651      -0.36199180       0.35199258
Si       5.42000000       9.77000000       2.06000000  F       0.00000000       0.00000000       0.00000000
Si       8.43337738       7.02858652       2.74802275  T      -0.53971468       0.66603201       0.13771412
Si       3.63421267       4.29030636       9.89960573  T      -0.79539641       0.21015851       0.31983076
Si       2.25077133       1.63166700       8.94897332  T       0.67767280       0.19850072      -0.54442958
Si       0.54079560       2.78888012       7.00642530  T       0.48405388      -0.74185335      -0.55220442
Si       5.11011475       1.21791835       7.48030783  T       1.35411915      -0.11124999       0.30356003
Si       6.56445012       3.46332120       9.10965181  T      -0.39559068       0.15617982       0.57225710
Si       7.85334151       0.98547000      10.46243208  T      -0.20352063       0.78155538      -0.13105685
Si       3.53583822       8.19676420      10.42373531  T       0.42237820      -0.19763956       0.69977031
Si       2.95294099       6.87816905       8.03544996  T      -0.48329811      -0.20772783      -0.02831050
Si       0.92281761       6.39292956      10.99664429  T       0.91898878      -0.19480125      -0.29367603
Si       0.29965482       5.78920909       7.96958997  T       0.23819837       0.26306432      -0.01313891
Si       5.90089661       7.05442972      11.65931529  T       0.44951120      -0.29810692       1.59726073
Si       7.43363010       6.10404811       7.77953697  T       0.92667359       0.35155574      -0.32930708
Si       7.34596194       9.29593242       8.03006886  T      -0.02483904       0.13370978       0.03836004
Si       7.93000000       1.02000000       0.50000000  F       0.00000000       0.00000000       0.00000000
Si       0.91000000       6.44000000       0.98000000  F       0.00000000       0.00000000       0.00000000
Si       5.91000000       7.08000000       1.49000000  F       0.00000000       0.00000000       0.00000000
C        4.97353482       4.99836556      22.21239137  T      -0.22053451       0.01396234     -12.83870388
F        5.79608590       6.05867160      22.21951039  T       0.17139651      -0.30557447     -20.97033112
F        5.80901130       3.94125328      22.24869239  T       0.98263002       0.03701341     -19.32785160
153
Lattice="10.0 0.0 0.0 0.0 10.0 0.0 0.0 0.0 43.74" Properties=species:S:1:pos:R:3:move_mask:L:1:momenta:R:3 etch=trj_CF2_30eV_case1 idx=0 index=0 source=trj_CF2_30eV_case1/0000/OUTCAR converged=T time_fs=43.0 pbc="T T T"
O        2.16232725       4.60675825      13.88393419  T      -0.37098943      -0.60903745      -0.08659107
O        1.41993349       2.47150655      12.26121467  T      -0.40539589       0.22197876      -0.74324301
O        3.79902569       2.58894207      14.26870424  T      -0.42583043       0.80842823      -0.24368529
O        3.72813860       4.49765396      16.13878420  T       0.49055878       0.18515130       0.33028302
O        1.73393057       2.86898870      15.88677363  T      -0.94065581      -0.47422854       0.25595477
O        5.05275445       1.72891209      16.06464324  T       0.41704537       0.08451149       1.05418896
O        5.03728750       0.98531885      13.31772400  T       0.48928589       0.22394132       0.09303585
O        6.14247181       3.60630580      14.03018120  T      -0.03956808      -0.28515692      -0.27471545
O        7.17284550       1.50746063      14.76114954  T       0.64680892       0.49507148       0.02303679
O        8.94206236       2.36558547      16.45906163  T       0.10264021       0.68960988       0.37460669
O        9.66410439       0.46476829      14.84628188  T       0.52709971       0.24831759       0.45187076
O        0.89548311       9.79536355      12.59504526  T      -0.40023916       0.40036632      -0.15081050
O        1.08744525       8.13056259      14.71275160  T      -0.75734903      -0.47517996       0.40839274
O       10.01063761       6.86638345      12.29634050  T      -0.06576222      -0.79182986       0.20521605
O        5.35176340       6.04024528      14.66317193  T       0.00789375      -1.15047251       0.59693852
O        5.65601494       5.48124629      12.11115704  T       0.27123577      -0.30384569       0.58496031
O        7.72741869       5.86726119      13.58406418  T       0.28028098       0.21208268      -0.61109461
O        5.59408114       8.30054006      12.79150652  T       0.04783276       1.26202707       1.37063954
O        8.62109709       8.38648233      13.58009213  T       0.05862134       0.74032584      -0.55980093
O        2.41986415       5.10180275      21.41223149  T      -0.61331143      -0.15268729      -1.06484386
O        0.24997498       6.09262773      22.62989347  T      -0.05853926      -0.77612537      -0.38547316
O        1.90668879       0.25715356      20.08713664  T       0.34400673       0.60879857      -0.08089168
O        2.38780291       2.87587490      19.96562454  T       1.74835638       1.03924219       0.62996370
O        3.48109214       1.32037096      18.16647582  T      -0.21642963       0.36460751      -0.46078010
O        0.80270925       1.61367766      18.08458539  T       0.32019803       0.01279892       0.50800867
O        0.36833836       4.10655053      17.81678701  T      -0.31417106       0.79055228       0.07124740
O        9.07460383       1.41556983      21.44218587  T      -0.06131539       0.51655128      -0.01304429
O        5.50484977       3.02494858      18.20227708  T       0.78377365      -0.52710285      -0.38992979
O        4.70763947       3.90963990      20.65483459  T      -0.22928859      -0.18822242      -1.39513843
O        7.07445343       2.75288912      20.36407343  T       0.07642056      -0.05054405      -0.13793449
O        6.52167728       0.51394638      21.51117293  T       0.61529172       0.30546291       0.02389760
O        6.58564646       5.21439326      19.38752418  T      -0.38190335      -0.35926440       0.37639989
O        7.94910481       9.85465489      16.73814974  T       0.40197669       0.41306129      -0.53038113
O        3.81489925       6.92748274      16.83605646  T      -0.55416841      -0.61449786       0.29835926
O        3.83440303       9.37752348      21.33749861  T       0.26536651       0.07410795      -0.40664620
O        3.24807425       8.01732040      19.13716124  T      -0.59572585       0.04419001       0.27701054
O        1.28190228       6.60693357      17.81519576  T      -0.75342445      -0.58815278       0.66319464
O        3.22536874       5.28692471      18.95015870  T       0.29669863       0.17118531       0.80737070
O        0.16386417       5.63013610      20.01435303  T       0.16038041       1.02582245       0.70284656
O        1.53707742       7.73614460      21.19667755  T       0.39881530      -0.63759890       0.39868115
O        4.64909850       8.33732673      22.02749873  T       0.12991596       0.01057825       0.58179751
O        8.05985905       0.21866126      19.34701211  T      -0.28232033       0.31862478      -0.13726857
O        6.83562798       8.75424141      23.66337167  T      -0.86312425      -0.50483035      -0.57831957
O        6.17254112       5.79991801      16.93875287  T      -0.10680736      -0.44687123       0.76457608
O        5.71565845       0.21002579      18.20746274  T       0.04711984       0.04212153      -0.36465429
O        8.66105779       6.08993544      17.91208613  T      -0.38135209       0.35115116      -0.29107626
O        6.91340134       7.88869984      18.41985085  T      -0.52535826       0.56251786       0.35200853
O        2.02458699       4.54502397       3.84164535  T      -0.65273118      -1.80615297      -0.57843726
O        1.59324359       2.47363000       2.02843645  T       1.01652263      -0.33617708      -2.49433332
O        3.82143912       2.70555019       4.16853458  T      -0.72040259       0.49403683       0.17133555
O        3.78604317       4.50579931       6.08922371  T      -0.81249573      -1.11668741      -0.88643622
O        1.61377770       2.97967647       5.80353331  T      -0.16537442       0.31974259       0.18619970
O        4.94357129       1.34820040       5.85896482  T       0.36999934       0.36550637      -0.39992775
O        5.25461317       0.94354146       3.15822408  T       1.08331373       0.38476133       0.01969101
O        6.18989232       3.55177803       3.98710744  T      -0.05646478      -0.56927420      -1.12711186
O        7.18491713       1.61280649       4.86834431  T       1.06159057       0.56626192       0.41826540
O        9.08283233       2.32434408       6.45862009  T       0.68022366       0.96151409       1.68121078
O        9.66446083       0.64476763       4.57463715  T       0.18393078       0.51613995      -0.80078932
O        1.04091432       9.71363554       2.50601163  T       0.41991841       0.24221428       0.41757320
O        1.12055184       8.06081302       4.67639052  T      -0.87129613      -0.09184500       0.11906467
O        9.87000000       6.98000000       2.02000000  F       0.00000000       0.00000000       0.00000000
O        5.36164391       6.02701553       4.62648578  T       0.26642923       0.04499453       0.06237356
O        5.59000000       5.63000000       2.17000000  F       0.00000000       0.00000000       0.00000000
O        7.74446351       5.81240182       3.56505107  T       0.56245498      -0.14598853      -0.44190585
O        5.55024784       8.21590577       2.57236228  T      -0.59909501       0.01079921       1.56755855
O        8.67223305       8.45099236       3.56668645  T       0.23378140       0.30880934      -0.13291459
O        3.47778749       4.12266523      11.56546536  T      -0.37753430      -0.21763180       0.19791633
O        1.09561120       4.85168930      11.42205546  T      -0.37456792      -0.16833819       0.19069380
O        1.75952345       0.82627929      10.27552884  T      -0.20246921      -1.04416473       0.07927815
O        2.66000968       3.19906107       9.23876240  T      -0.79233776       0.79502445      -0.52533774
O        3.63531414       1.09535378       8.28883660  T      -0.11918003       0.87325247       0.49862165
O        0.93170396       1.58855675       8.00471316  T       0.22883503      -0.55357439       0.70282713
O        0.46158950       4.17029267       7.81472447  T       0.10050770       0.25128383      -0.06352286
O        9.24012332       1.27471647      11.23039391  T      -0.63017528      -0.61858166      -0.73620635
O        6.03661900       2.54432730       7.87195974  T       0.19255700       0.02860202       0.71303297
O        5.26027157       4.07822592       9.84025215  T      -0.53342633      -0.11619072       0.12655724
O        7.45696041       2.48142491       9.99697579  T       0.29523554       0.17329451      -0.13043013
O        6.63596357       0.25017334      11.31686716  T      -1.21030834       0.54942662       0.58476913
O        7.45846900       4.77947169       8.73571862  T       0.18138018      -0.77150146      -0.04299394
O        8.04070141       9.84815464       6.65021494  T       0.57291633      -0.16122529      -0.19556273
O        4.08222062       7.07290134       6.83786585  T       0.79059017      -0.68860211      -0.56259088
O        4.09342762       9.63232698      11.09495623  T      -0.13816613      -0.10456951      -0.77939338
O        3.00273262       8.28021636       8.89347622  T      -0.61785565      -0.15527851       0.10412409
O        1.54404140       6.57785861       7.14415785  T       0.03948615      -0.34014649      -0.84507319
O        3.21804280       5.67096225       9.13429031  T      -0.94320311      -0.11908761       0.32982152
O        0.21330003       6.25436650       9.54297124  T       1.32620800      -0.71545759       0.58674680
O        2.29109171       7.34775232      11.18393559  T      -1.15435602      -0.77448126       0.26650927
O        4.89199942       7.27111878      10.39766371  T      -1.14534152      -0.57035621      -0.33288592
O        8.31913923      -0.05782502       9.22028294  T      -0.17459542      -1.35320599      -0.20317727
O        7.52656073       7.15255765      11.31690344  T       0.28997931      -0.13078040       0.27878342
O        6.24321578       5.56970535       6.82545672  T       0.14359744       0.52800212      -0.17001966
O        5.85973193       9.85991460       7.96613204  T      -0.12017963       0.14432874       0.22785493
O        8.93810327       6.18971375       7.11416398  T      -0.58715836       1.08139037      -0.60722013
O        7.14012489       7.66046318       8.22748191  T      -0.27011110       0.35636943       0.40382880
O        3.55000000       4.18000000       1.53000000  F       0.00000000       0.00000000       0.00000000
O        1.14000000       4.89000000       1.35000000  F       0.00000000       0.00000000       0.00000000
O        9.29000000       1.31000000       1.44000000  F       0.00000000       0.00000000       0.00000000
O        6.84000000       0.20000000       1.30000000  F       0.00000000       0.00000000       0.00000000
O        3.95000000       9.60000000       1.25000000  F       0.00000000       0.00000000       0.00000000
O        2.28000000       7.42000000       1.08000000  F       0.00000000       0.00000000       0.00000000
O        7.52000000       7.21000000       1.37000000  F       0.00000000       0.00000000       0.00000000
Si       2.04527296       3.98525360      12.38640093  T      -0.85085665      -0.24780873      -0.31861304
Si       2.89570811       3.65866873      14.99624180  T      -0.25322227      -0.26134178      -0.05961938
Si       0.83342149       1.08672793      11.58342438  T       0.40890123      -0.30714499      -2.12855730
Si       8.37238064       1.00556484      15.68467717  T       0.64843978       0.00474590       1.36007752
Si       5.55468507       2.11261043      14.47903910  T      -0.77543817       0.12354222       0.71248783
Si       4.74940792       5.76625410      16.12832564  T      -0.60908237      -0.91506248       0.10130651
Si       0.04333521       9.20433520      13.83473386  T       0.60510687       0.21326556      -0.04028527
Si       6.22640346       5.16721815      13.62866665  T       0.60888823       0.48482046      -0.43146582
Si       5.32511794       9.88594092      12.19407699  T      -0.66555248       0.02308679       0.02152454
Si       8.43509233       7.01406882      12.65124188  T       1.33003938      -0.14597338       0.15926507
Si       3.15226748       4.26688269      20.22186409  T      -0.72697085      -1.05169351      -0.65024273
Si       2.10990313       1.53634265      19.06264441  T       0.45379792       0.09328044      -0.11403329
Si       0.50401465       2.75686199      16.91249951  T       0.05171429       0.87134933       1.12075178
Si       4.97168668       1.56168718      17.61792831  T      -0.02077962       0.04676801      -0.43206235
Si       5.98589258       3.72144033      19.57338606  T       1.12814253      -0.06220807      -1.36395126
Si       7.69063168       1.22969535      20.60608817  T      -0.10242205      -0.47135050       1.34631394
Si       2.56888678       8.79860619      20.44642329  T       0.08379513       0.74649962       0.35985817
Si       2.85385464       6.74440832      18.14456750  T       0.44143075       0.28647698       0.01933230
Si       1.10898995       6.13689898      21.30268105  T      -0.10115100      -0.04034566      -1.39330554
Si       0.14440269       5.57232261      18.33112345  T      -0.23354495       0.83720476      -0.57485464
Si       6.07158393       9.31860444      22.43506801  T      -0.85338687       0.21049833      -0.24820653
Si       7.06330762       6.24476183      18.19341622  T       0.10643763      -0.10810403       0.16301931
Si       7.18264180       9.47480964      18.11529616  T      -0.34337303       0.17809243       0.27897893
Si       2.10000000       3.98000000       2.32000000  F       0.00000000       0.00000000       0.00000000
Si       2.84788436       3.69494948       4.99706093  T      -0.05757330       1.16456222       0.27038858
Si       0.89000000       1.15000000       1.77000000  F       0.00000000       0.00000000       0.00000000
Si       8.43560131       1.03700279       5.63544601  T       0.52740884      -0.49019414       0.49271314
Si       5.52107193       2.01520016       4.43608983  T      -0.60116486       0.60770578       0.47647436
Si       4.81159464       5.82575013       6.14451993  T       0.06294831       0.27760885      -0.57575930
Si       0.12590082       9.22521266       3.95006945  T       2.30706974       0.13014491      -0.77981100
Si       6.21173125       5.09423949       3.62325630  T       0.55139295      -0.26510543       0.35459000
Si       5.42000000       9.77000000       2.06000000  F       0.00000000       0.00000000       0.00000000
Si       8.43146812       7.03110548       2.74855015  T      -0.54991205       0.77487088       0.16339658
Si       3.63163572       4.29093984       9.90104680  T      -0.67861805       0.15149891       0.50434993
Si       2.25331028       1.63241197       8.94710758  T       0.77128688       0.22801815      -0.51894660
Si       0.54232159       2.78630612       7.00428862  T       0.39098916      -0.72828728      -0.66462105
Si       5.11466438       1.21767233       7.48134757  T       1.24495665      -0.02758070       0.28969229
Si       6.56297333       3.46399478       9.11155229  T      -0.44863098       0.22927074       0.51515899
Si       7.85268404       0.98801293      10.46196359  T      -0.17568190       0.66855488      -0.13759385
Si       3.53731521       8.19614469      10.42640026  T       0.41734817      -0.15736653       0.82245636
Si       2.95116001       6.87748048       8.03515847  T      -0.53393990      -0.18606524      -0.13942289
Si       0.92615760       6.39234456      10.99589119  T       0.98910405      -0.14141521      -0.13393217
Si       0.30048159       5.79010131       7.96927268  T       0.23333870       0.24639848      -0.16884420
Si       5.90238513       7.05346484      11.66493679  T       0.39929103      -0.25094108       1.61419188
Si       7.43692090       6.10528328       7.77832530  T       0.95181386       0.35379529      -0.36168807
Si       7.34614426       9.29629291       8.03024974  T       0.12923465       0.07160734       0.06389212
Si       7.93000000       1.02000000       0.50000000  F       0.00000000       0.00000000       0.00000000
Si       0.91000000       6.44000000       0.98000000  F       0.00000000       0.00000000       0.00000000
Si       5.91000000       7.08000000       1.49000000  F       0.00000000       0.00000000       0.00000000
C        4.97246989       4.99830860      22.10792112  T      -0.03805027      -0.02941718     -12.70413975
F        5.79686134       6.05697689      22.11095774  T       0.12828163      -0.34820258     -21.02309129
F        5.81462975       3.94163172      22.14998943  T       1.20673148       0.11032019     -18.83059498
153
Lattice="10.0 0.0 0.0 0.0 10.0 0.0 0.0 0.0 43.74" Properties=species:S:1:pos:R:3:move_mask:L:1:momenta:R:3 etch=trj_CF2_30eV_case1 idx=0 index=0 source=trj_CF2_30eV_case1/0000/OUTCAR converged=T time_fs=44.0 pbc="T T T"
O        2.15997287       4.60301515      13.88341400  T      -0.39606530      -0.60974949      -0.08209453
O        1.41736952       2.47273651      12.25678318  T      -0.43031304       0.17709598      -0.70082074
O        3.79657454       2.59412508      14.26710311  T      -0.37023804       0.87712353      -0.27787315
O        3.73123673       4.49881237      16.14074882  T       0.51518925       0.18837082       0.30863570
O        1.72805370       2.86616806      15.88822030  T      -0.97031364      -0.44298272       0.21367605
O        5.05550532       1.72942767      16.07073470  T       0.47891519       0.08422001       0.92351593
O        5.04061679       0.98647943      13.31819225  T       0.59404434       0.15442169       0.06021292
O        6.14228383       3.60471149      14.02841389  T      -0.02153808      -0.23260104      -0.30120823
O        7.17658742       1.51041199      14.76113229  T       0.57176412       0.46615790      -0.02756411
O        8.94311834       2.36984059      16.46132267  T       0.24106646       0.69580612       0.36228977
O        9.66745912       0.46599146      14.84879349  T       0.56536767       0.15010762       0.36659595
O        0.89306205       9.79786598      12.59401690  T      -0.38801752       0.41503595      -0.18465260
O        1.08254103       8.12789169      14.71506522  T      -0.84003235      -0.39472168       0.34516934
O       10.01022166       6.86146977      12.29714620  T      -0.06813605      -0.80868553       0.05697005
O        5.35149672       6.03331871      14.66680208  T      -0.09388629      -1.10478970       0.58417441
O        5.65772852       5.47970521      12.11499959  T       0.28574495      -0.19697681       0.66433058
O        7.72929371       5.86845365      13.58038022  T       0.32954405       0.17544024      -0.58746541
O        5.59439168       8.30822057      12.79955690  T       0.05330265       1.23596604       1.24976484
O        8.62151799       8.39118328      13.57657903  T       0.07837551       0.78989642      -0.58481802
O        2.41593952       5.10100030      21.40570944  T      -0.66362787      -0.10969336      -1.05819254
O        0.24935061       6.08778812      22.62796164  T      -0.14377033      -0.80038302      -0.24508855
O        1.90882357       0.26073167      20.08655514  T       0.35135299       0.55591725      -0.10759516
O        2.39840591       2.88214389      19.96941448  T       1.70056286       0.99167032       0.60088166
O        3.47934399       1.32266260      18.16380394  T      -0.35211628       0.38210867      -0.40938076
O        0.80496169       1.61379039      18.08776395  T       0.41258640       0.02521865       0.52718143
O        0.36650493       4.11122509      17.81701711  T      -0.28277372       0.73052385       0.00396894
O        9.07433712       1.41877378      21.44213210  T      -0.02529381       0.52712533      -0.00427144
O        5.50967805       3.02169133      18.20005574  T       0.78853759      -0.53240566      -0.33244325
O        4.70513280       3.90855170      20.64461455  T      -0.60486302      -0.16475410      -1.95270438
O        7.07489726       2.75241864      20.36288696  T       0.06845039      -0.10353286      -0.25017354
O        6.52518730       0.51580438      21.51123872  T       0.52523768       0.29718573       0.00009229
O        6.58335123       5.21232370      19.38986327  T      -0.36455521      -0.31276357       0.38395825
O        7.95147569       9.85686436      16.73509066  T       0.36800301       0.30347645      -0.46103450
O        3.81142742       6.92371705      16.83793812  T      -0.57541953      -0.61148587       0.31308981
O        3.83608447       9.37810216      21.33519808  T       0.28275618       0.11444781      -0.34231610
O        3.24411487       8.01750714      19.13886102  T      -0.69359114       0.01672450       0.27583079
O        1.27728293       6.60349940      17.81908730  T      -0.74513960      -0.52729818       0.60353447
O        3.22721274       5.28822401      18.95487959  T       0.30406820       0.25336016       0.72839733
O        0.16513312       5.63651046      20.01859558  T       0.25033094       1.04915605       0.67383650
O        1.53979799       7.73237793      21.19890369  T       0.48847519      -0.58654573       0.32579308
O        4.65031926       8.33789230      22.03106630  T       0.26657455       0.17406987       0.57965503
O        8.05789962       0.22068889      19.34621911  T      -0.35584461       0.34184307      -0.12068254
O        6.83013914       8.75126644      23.65961756  T      -0.92373282      -0.46466027      -0.64307883
O        6.17176170       5.79697852      16.94344327  T      -0.14877802      -0.51051303       0.76234701
O        5.71604988       0.21042326      18.20510869  T       0.07929226       0.08763227      -0.40195141
O        8.65872548       6.09201263      17.91024904  T      -0.37727886       0.32521671      -0.30672470
O        6.91018224       7.89202462      18.42203988  T      -0.52303272       0.51747775       0.36093171
O        2.02049424       4.53393536       3.83793250  T      -0.68152099      -1.80332281      -0.62868630
O        1.59968364       2.47163717       2.01322082  T       1.08206799      -0.31160164      -2.46216629
O        3.81714539       2.70856366       4.16957800  T      -0.67634874       0.48595146       0.16761762
O        3.78109357       4.49928655       6.08386432  T      -0.79464392      -0.99863701      -0.85571488
O        1.61298022       2.98161704       5.80462123  T      -0.09338980       0.31239348       0.16719561
O        4.94576761       1.35038377       5.85682672  T       0.34520615       0.34494842      -0.29323228
O        5.26145437       0.94586216       3.15851265  T       1.14451993       0.37105500       0.07414865
O        6.18948757       3.54828628       3.98004664  T      -0.07527399      -0.56669674      -1.17250612
O        7.19107763       1.61617204       4.87059812  T       0.94317508       0.53095108       0.31580293
O        9.08695770       2.33016434       6.46884869  T       0.65783118       0.92925701       1.64660103
O        9.66561222       0.64775968       4.56980498  T       0.19116037       0.45787180      -0.77243126
O        1.04342778       9.71538158       2.50873912  T       0.39954334       0.32690592       0.46949982
O        1.11485563       8.06075899       4.67689419  T      -0.98287385       0.07334273       0.04555394
O        9.87000000       6.98000000       2.02000000  F       0.00000000       0.00000000       0.00000000
O        5.36301114       6.02744617       4.62682072  T       0.17927617       0.09462990       0.04574790
O        5.59000000       5.63000000       2.17000000  F       0.00000000       0.00000000       0.00000000
O        7.74803608       5.81139468       3.56238950  T       0.59984252      -0.18293099      -0.42427847
O        5.54659084       8.21607068       2.58212703  T      -0.59084362       0.04129630       1.60993023
O        8.67369620       8.45281289       3.56588367  T       0.24346537       0.28467104      -0.12852344
O        3.47531143       4.12139148      11.56646155  T      -0.42839347      -0.19710392       0.12641891
O        1.09322436       4.85066831      11.42310757  T      -0.40297146      -0.16416933       0.15196176
O        1.75832975       0.81980137      10.27595452  T      -0.18362571      -1.06462293       0.05501338
O        2.65502350       3.20377010       9.23550345  T      -0.83149344       0.73799118      -0.53552414
O        3.63496080       1.10065555       8.29158325  T       0.00800626       0.85251239       0.39420170
O        0.93337337       1.58504476       8.00909746  T       0.31366303      -0.58840843       0.72270277
O        0.46214686       4.17218173       7.81453531  T       0.08099755       0.36253785       0.00085304
O        9.23649896       1.27085474      11.22607583  T      -0.54670512      -0.63899433      -0.66898768
O        6.03760947       2.54433016       7.87622528  T       0.12950287      -0.02848639       0.67514790
O        5.25669317       4.07747945       9.84088778  T      -0.63118272      -0.12694655       0.08048066
O        7.45874932       2.48245083       9.99631733  T       0.28691640       0.16130516      -0.08421204
O        6.62903353       0.25385133      11.32014382  T      -1.04342892       0.64997979       0.47950004
O        7.45975908       4.77477508       8.73571883  T       0.23923688      -0.75497898       0.04112381
O        8.04435648       9.84680294       6.64900114  T       0.61676768      -0.27995374      -0.19817649
O        4.08689813       7.06867121       6.83466039  T       0.72903684      -0.68674047      -0.47819803
O        4.09230054       9.63145846      11.09018259  T      -0.22816771      -0.17758960      -0.77389209
O        2.99887599       8.27920626       8.89391279  T      -0.63776327      -0.17413365       0.03937771
O        1.54439066       6.57569115       7.13967237  T       0.07458945      -0.36536616      -0.61589073
O        3.21218683       5.67033484       9.13609324  T      -0.96399080      -0.08467038       0.25693067
O        0.22145941       6.25018965       9.54636016  T       1.32979214      -0.64499159       0.51274657
O        2.28394228       7.34306816      11.18543901  T      -1.16908089      -0.74762020       0.22261114
O        4.88519957       7.26758757      10.39573856  T      -1.06456423      -0.58161453      -0.28942211
O        8.31759097      -0.06605208       9.21914562  T      -0.32946575      -1.32388060      -0.16437883
O        7.52814028       7.15185434      11.31850878  T       0.22308584      -0.09812203       0.24434907
O        6.24407288       5.57294638       6.82450707  T       0.13571952       0.52717104      -0.13906291
O        5.85864645       9.86089510       7.96764839  T      -0.23192292       0.17401741       0.26592126
O        8.93460080       6.19633628       7.11065598  T      -0.54963307       1.07503439      -0.53451736
O        7.13856106       7.66272387       8.22994398  T      -0.23924507       0.37801270       0.39770155
O        3.55000000       4.18000000       1.53000000  F       0.00000000       0.00000000       0.00000000
O        1.14000000       4.89000000       1.35000000  F       0.00000000       0.00000000       0.00000000
O        9.29000000       1.31000000       1.44000000  F       0.00000000       0.00000000       0.00000000
O        6.84000000       0.20000000       1.30000000  F       0.00000000       0.00000000       0.00000000
O        3.95000000       9.60000000       1.25000000  F       0.00000000       0.00000000       0.00000000
O        2.28000000       7.42000000       1.08000000  F       0.00000000       0.00000000       0.00000000
O        7.52000000       7.21000000       1.37000000  F       0.00000000       0.00000000       0.00000000
Si       2.04242404       3.98419484      12.38503608  T      -0.77834170      -0.35750365      -0.46137369
Si       2.89476346       3.65760032      14.99628663  T      -0.28890944      -0.34812914       0.08735545
Si       0.83478392       1.08584237      11.57606482  T       0.36711030      -0.19903328      -2.07606755
Si       8.37466802       1.00583532      15.68935158  T       0.66003752       0.15275241       1.30882492
Si       5.55180582       2.11285984      14.48158755  T      -0.86939213       0.01932688       0.74391543
Si       4.74730030       5.76318078      16.12877266  T      -0.59352339      -0.84082859       0.15595547
Si       0.04543117       9.20497850      13.83491988  T       0.59289746       0.15541263       0.14698102
Si       6.22858277       5.16879340      13.62708288  T       0.63792885       0.41257455      -0.47089906
Si       5.32277601       9.88579297      12.19420347  T      -0.67462775      -0.10617834       0.05166875
Si       8.43987058       7.01366681      12.65204364  T       1.40115851      -0.08209080       0.29869564
Si       3.14951655       4.26334962      20.21945099  T      -0.84867640      -0.96074303      -0.73053467
Si       2.11163101       1.53654447      19.06220216  T       0.53498128       0.02465398      -0.13737505
Si       0.50392458       2.75976773      16.91658197  T      -0.10465495       0.78928657       1.21351270
Si       4.97159382       1.56176562      17.61655127  T      -0.03250099      -0.00363418      -0.35146084
Si       5.99009433       3.72106050      19.56865854  T       1.27843544      -0.15902769      -1.34275026
Si       7.69036930       1.22811930      20.61068436  T      -0.04532207      -0.42855485       1.27926118
Si       2.56907567       8.80111419      20.44750478  T       0.02326664       0.68621371       0.25958727
Si       2.85562809       6.74534116      18.14480208  T       0.56832939       0.24581064       0.11625504
Si       1.10861961       6.13669967      21.29759258  T      -0.11135660      -0.07283701      -1.51192450
Si       0.14336469       5.57544205      18.32946411  T      -0.36257872       0.94571163      -0.37064735
Si       6.06852869       9.31892737      22.43443756  T      -0.89354420      -0.02426589      -0.11398885
Si       7.06382140       6.24455001      18.19396602  T       0.18590566      -0.01143509       0.15218420
Si       7.18141370       9.47554777      18.11643500  T      -0.35686460       0.24549186       0.37007728
Si       2.10000000       3.98000000       2.32000000  F       0.00000000       0.00000000       0.00000000
Si       2.84775000       3.69884136       4.99815992  T      -0.02265865       1.05702817       0.35603624
Si       0.89000000       1.15000000       1.77000000  F       0.00000000       0.00000000       0.00000000
Si       8.43752279       1.03559065       5.63724965  T       0.57436718      -0.31444294       0.53838575
Si       5.51893968       2.01732002       4.43769937  T      -0.61680019       0.60431806       0.44180166
Si       4.81184791       5.82648413       6.14227073  T       0.08242927       0.13774074      -0.71039326
Si       0.13410865       9.22531610       3.94726145  T       2.38256917      -0.06935899      -0.82456486
Si       6.21371771       5.09348268       3.62448903  T       0.58477485      -0.16767768       0.34882417
Si       5.42000000       9.77000000       2.06000000  F       0.00000000       0.00000000       0.00000000
Si       8.42954327       7.03400861       2.74916291  T      -0.54868118       0.88542978       0.18652547
Si       3.62946102       4.29136369       9.90313162  T      -0.56616623       0.09064879       0.68701139
Si       2.25614995       1.63326432       8.94536345  T       0.84982667       0.25966932      -0.47506074
Si       0.54354664       2.78379664       7.00180760  T       0.31260894      -0.70478033      -0.74843768
Si       5.11880912       1.21773518       7.48232711  T       1.12292849       0.06499467       0.26932476
Si       6.56131392       3.46492529       9.11325959  T      -0.49987347       0.30267655       0.46194388
Si       7.85209465       0.99012499      10.46146515  T      -0.16426307       0.53586171      -0.14820732
Si       3.53872883       8.19565831      10.42947610  T       0.38607333      -0.12178497       0.93392361
Si       2.94921327       6.87686716       8.03447016  T      -0.57801730      -0.16473989      -0.25468740
Si       0.92972444       6.39192955      10.99572230  T       1.04829784      -0.09792144       0.03937879
Si       0.30128038       5.79092940       7.96840812  T       0.22240411       0.22676675      -0.32528994
Si       5.90367724       7.05268947      11.67058837  T       0.33773013      -0.18998493       1.61452845
Si       7.44026844       6.10651747       7.77701855  T       0.95906249       0.35107300      -0.38349175
Si       7.34686341       9.29642958       8.03050833  T       0.28099550       0.00608688       0.08260969
Si       7.93000000       1.02000000       0.50000000  F       0.00000000       0.00000000       0.00000000
Si       0.91000000       6.44000000       0.98000000  F       0.00000000       0.00000000       0.00000000
Si       5.91000000       7.08000000       1.49000000  F       0.00000000       0.00000000       0.00000000
C        4.97292925       4.99786274      22.00468082  T       0.15095098      -0.08132241     -12.53830254
F        5.79740989       6.05508839      22.00209933  T       0.08359886      -0.38005043     -21.08863931
F        5.82164384       3.94240074      22.05417660  T       1.52616657       0.18787175     -18.20802659
153
Lattice="10.0 0.0 0.0 0.0 10.0 0.0 0.0 0.0 43.74" Properties=species:S:1:pos:R:3:move_mask:L:1:momenta:R:3 etch=trj_CF2_30eV_case1 idx=0 index=0 source=trj_CF2_30eV_case1/0000/OUTCAR converged=T time_fs=45.0 pbc="T T T"
O        2.15746357       4.59927525      13.88293312  T      -0.42132047      -0.60827463      -0.07397057
O        1.41464561       2.47366628      12.25260453  T      -0.45731350       0.12447797      -0.66082780
O        3.79450426       2.59968245      14.26529208  T      -0.30175845       0.93023675      -0.31211821
O        3.73442907       4.49992752      16.14256383  T       0.52128332       0.17104703       0.28170326
O        1.72204938       2.86356464      15.88938243  T      -0.98257403      -0.40372140       0.16361382
O        5.05863238       1.72995338      16.07592102  T       0.53935718       0.08763934       0.76049784
O        5.04456881       0.98721892      13.31847143  T       0.69200937       0.08692682       0.03158730
O        6.14220810       3.60346278      14.02648135  T      -0.00310655      -0.17321507      -0.32836778
O        7.17986448       1.51318232      14.76082328  T       0.49578028       0.43603390      -0.07181340
O        8.94501657       2.37412087      16.46351281  T       0.37642613       0.69757085       0.35131201
O        9.67104057       0.46661399      14.85078936  T       0.60049779       0.05319835       0.28443916
O        0.89072190       9.80046092      12.59277522  T      -0.37407467       0.43026568      -0.21987327
O        1.07713355       8.12571614      14.71698982  T      -0.92105916      -0.31406161       0.28186280
O       10.00981589       6.85645587      12.29703967  T      -0.06273373      -0.82429852      -0.09147074
O        5.35062103       6.02668984      14.67032934  T      -0.19021509      -1.05367617       0.56320875
O        5.65951033       5.47883865      12.11928850  T       0.29332401      -0.08434034       0.73018936
O        7.73145520       5.86940624      13.57686607  T       0.37360488       0.13400927      -0.55578804
O        5.59473516       8.31567740      12.80683365  T       0.05852073       1.18945852       1.11903486
O        8.62205791       8.39616944      13.57290922  T       0.09732164       0.83315239      -0.61079531
O        2.41173188       5.10044505      21.39925346  T      -0.70538011      -0.07227988      -1.04338979
O        0.24822308       6.08280029      22.62686726  T      -0.22200019      -0.82433831      -0.11339932
O        1.91100238       0.26397115      20.08582510  T       0.35832399       0.49855747      -0.12927800
O        2.40863142       2.88793585      19.97296540  T       1.62519311       0.88376672       0.55229660
O        3.47678304       1.32506462      18.16144849  T      -0.48020923       0.40049177      -0.35824168
O        0.80776438       1.61400008      18.09105564  T       0.49920271       0.04428068       0.54474447
O        0.36486830       4.11550851      17.81684088  T      -0.25025624       0.66413285      -0.06063073
O        9.07429544       1.42204214      21.44213510  T       0.01188087       0.53752587       0.00538602
O        5.51452656       3.01842553      18.19820594  T       0.79030169      -0.53023143      -0.26931880
O        4.70002739       3.90763651      20.63067368  T      -1.07642608      -0.13111682      -2.60550637
O        7.07529948       2.75160704      20.36098367  T       0.06343237      -0.16221983      -0.37171827
O        6.52809770       0.51756785      21.51120102  T       0.42008128       0.27450595      -0.00970158
O        6.58118244       5.21057260      19.39222120  T      -0.34072100      -0.25595183       0.38228719
O        7.95360134       9.85835164      16.73253696  T       0.32247022       0.17846671      -0.36655367
O        3.80784818       6.91998178      16.83988534  T      -0.58907712      -0.60454065       0.31969557
O        3.83787764       9.37892893      21.33329840  T       0.30150752       0.15485172      -0.27635018
O        3.23956349       8.01752724      19.14053942  T      -0.78836017      -0.00996462       0.27007854
O        1.27281547       6.60049131      17.82259758  T      -0.70416083      -0.44953171       0.53915514
O        3.22910329       5.29004747      18.95908331  T       0.31183523       0.34165264       0.63921382
O        0.16690892       5.64300294      20.02257254  T       0.32512261       1.06421291       0.61638120
O        1.54308414       7.72896890      21.20067215  T       0.58263874      -0.52165913       0.24985447
O        4.65235836       8.33946586      22.03460928  T       0.39621534       0.33844725       0.57379962
O        8.05549163       0.22285787      19.34553371  T      -0.42830033       0.36457771      -0.10228131
O        6.82429985       8.74853002      23.65549485  T      -0.97677779      -0.42749721      -0.69760454
O        6.17069904       5.79365170      16.94810501  T      -0.19866387      -0.57292195       0.75551406
O        5.71661994       0.21110427      18.20252991  T       0.10514555       0.13439991      -0.43779849
O        8.65643644       6.09392611      17.90832630  T      -0.36731368       0.29787163      -0.31900030
O        6.90698153       7.89502489      18.42428123  T      -0.51936181       0.45727799       0.36904825
O        2.01620904       4.52290734       3.83395243  T      -0.71523633      -1.78662401      -0.66497118
O        1.60653629       2.46981538       1.99820343  T       1.15064552      -0.28099921      -2.42986464
O        3.81315376       2.71150043       4.17058345  T      -0.62207918       0.46910524       0.15904135
O        3.77633774       4.49359812       6.07875424  T      -0.74966466      -0.84871458      -0.80523803
O        1.61263955       2.98351175       5.80557745  T      -0.01693069       0.30470190       0.14357440
O        4.94780759       1.35242905       5.85539413  T       0.31910018       0.32074166      -0.17094996
O        5.26865898       0.94809523       3.15913180  T       1.20160591       0.35606329       0.12716691
O        6.18896924       3.54483585       3.97271493  T      -0.09344593      -0.55560032      -1.21536949
O        7.19648113       1.61933391       4.87222297  T       0.81570863       0.49969877       0.21379729
O        9.09085070       2.33570388       6.47879719  T       0.60461343       0.87060539       1.59025736
O        9.66680810       0.65038295       4.56516131  T       0.19838504       0.39598912      -0.73941136
O        1.04582792       9.71765253       2.51176138  T       0.38310364       0.41309291       0.51345066
O        1.10849897       8.06170226       4.67695667  T      -1.08612337       0.23261227      -0.02441710
O        9.87000000       6.98000000       2.02000000  F       0.00000000       0.00000000       0.00000000
O        5.36384978       6.02817035       4.62703596  T       0.09447560       0.14054363       0.02310316
O        5.59000000       5.63000000       2.17000000  F       0.00000000       0.00000000       0.00000000
O        7.75181403       5.81014799       3.55984935  T       0.62940716      -0.22382052      -0.40245981
O        5.54300657       8.21639625       2.59209554  T      -0.57541622       0.06315433       1.63391603
O        8.67522820       8.45449260       3.56510893  T       0.25606964       0.26299394      -0.12380241
O        3.47253479       4.12024660      11.56701735  T      -0.47529602      -0.17572497       0.05474977
O        1.09066390       4.84967311      11.42392153  T      -0.43093771      -0.16017706       0.11328348
O        1.75729654       0.81322106      10.27616095  T      -0.15028826      -1.07757068       0.00816200
O        2.64980604       3.20811544       9.23219562  T      -0.86733071       0.67702880      -0.54102741
O        3.63544838       1.10580946       8.29365979  T       0.15388948       0.82530035       0.28079501
O        0.93554038       1.58135405       8.01355791  T       0.39064112      -0.61156161       0.72726865
O        0.46258384       4.17472362       7.81472211  T       0.06135894       0.46302253       0.05854875
O        9.23344584       1.26687437      11.22219252  T      -0.44472121      -0.65721833      -0.59490379
O        6.03820464       2.54397182       7.88023779  T       0.06408896      -0.08852828       0.63092049
O        5.25253478       4.07666703       9.84124004  T      -0.72186392      -0.13774767       0.03422335
O        7.46047671       2.48341043       9.99593927  T       0.27507220       0.15182738      -0.03927688
O        6.62318318       0.25816462      11.32272756  T      -0.85989203       0.75578401       0.35994133
O        7.46140974       4.77023649       8.73620346  T       0.29871280      -0.72008836       0.11476659
O        8.04826554       9.84471078       6.64779666  T       0.65580975      -0.40194016      -0.19290511
O        4.09113363       7.06449393       6.83202564  T       0.64721809      -0.67178987      -0.37733244
O        4.09063604       9.63015593      11.08547279  T      -0.31290031      -0.24560879      -0.75834312
O        2.99490931       8.27807504       8.89397520  T      -0.65357103      -0.19460881      -0.01733127
O        1.54495931       6.57337811       7.13659444  T       0.11074274      -0.38752862      -0.38713058
O        3.20621114       5.66992592       9.13744164  T      -0.98201059      -0.04850450       0.18218885
O        0.22960959       6.24644845       9.54922400  T       1.32341157      -0.57353860       0.41620960
O        2.27679405       7.33861149      11.18666408  T      -1.15378867      -0.70029262       0.17612212
O        4.87897705       7.26396124      10.39415655  T      -0.95799020      -0.60109725      -0.22163626
O        8.31509904      -0.07405175       9.21829400  T      -0.48154813      -1.27925405      -0.11021853
O        7.52928691       7.15135466      11.31990812  T       0.14936221      -0.06448991       0.21214303
O        6.24488340       5.57617207       6.82375140  T       0.12841217       0.52296391      -0.10693754
O        5.85690374       9.86203888       7.96939546  T      -0.33346218       0.19720192       0.30301450
O        8.93139506       6.20290545       7.10760911  T      -0.49085156       1.06409623      -0.45735667
O        7.13718796       7.66508286       8.23236016  T      -0.20796912       0.38820691       0.38887326
O        3.55000000       4.18000000       1.53000000  F       0.00000000       0.00000000       0.00000000
O        1.14000000       4.89000000       1.35000000  F       0.00000000       0.00000000       0.00000000
O        9.29000000       1.31000000       1.44000000  F       0.00000000       0.00000000       0.00000000
O        6.84000000       0.20000000       1.30000000  F       0.00000000       0.00000000       0.00000000
O        3.95000000       9.60000000       1.25000000  F       0.00000000       0.00000000       0.00000000
O        2.28000000       7.42000000       1.08000000  F       0.00000000       0.00000000       0.00000000
O        7.52000000       7.21000000       1.37000000  F       0.00000000       0.00000000       0.00000000
Si       2.03982695       3.98275448      12.38317778  T      -0.70722062      -0.46573349      -0.60032946
Si       2.89367547       3.65624343      14.99686392  T      -0.33530693      -0.42592346       0.24445187
Si       0.83597221       1.08533582      11.56892444  T       0.30960293      -0.09081331      -2.00339323
Si       8.37700015       1.00664801      15.69380873  T       0.67396924       0.31415140       1.23599284
Si       5.54861383       2.11274840      14.48423620  T      -0.95407644      -0.08234590       0.76935090
Si       4.74527106       5.76038149      16.12942540  T      -0.56442095      -0.75840368       0.21870831
Si       0.04748018       9.20542763      13.83576114  T       0.57854492       0.10243390       0.33347366
Si       6.23086898       5.17008590      13.62539303  T       0.66990942       0.32369031      -0.49176798
Si       5.32039478       9.88520758      12.19444143  T      -0.68748448      -0.22686844       0.08456668
Si       8.44488528       7.01350489      12.65332649  T       1.46484616      -0.00880194       0.43377776
Si       3.14631214       4.26021077      20.21674777  T      -0.98763043      -0.82551418      -0.81652325
Si       2.11364823       1.53652937      19.06169258  T       0.61882783      -0.03092583      -0.15239551
Si       0.50327683       2.76237777      16.92098595  T      -0.26626488       0.70241430       1.30440373
Si       4.97145742       1.56165262      17.61549131  T      -0.04596721      -0.06236137      -0.25127602
Si       5.99485834       3.72030497      19.56397260  T       1.44980448      -0.27682132      -1.34062885
Si       7.69032789       1.22670441      20.61502181  T       0.02382322      -0.37950661       1.19872757
Si       2.56904531       8.80339864      20.44824560  T      -0.04112191       0.61898204       0.16524349
Si       2.85780351       6.74612110      18.14538842  T       0.67095466       0.19904837       0.22023457
Si       1.10820643       6.13639535      21.29213487  T      -0.12570156      -0.09997180      -1.60341863
Si       0.14185333       5.57893055      18.32854782  T      -0.50358606       1.04756343      -0.15087036
Si       6.06533457       9.31844699      22.43425784  T      -0.93282291      -0.24779703       0.00851679
Si       7.06459837       6.24469004      18.19448491  T       0.25653148       0.09271954       0.14516245
Si       7.18015731       9.47653447      18.11787244  T      -0.35960583       0.31984921       0.44984098
Si       2.10000000       3.98000000       2.32000000  F       0.00000000       0.00000000       0.00000000
Si       2.84770582       3.70232125       4.99953794  T      -0.00604648       0.92927966       0.42939917
Si       0.89000000       1.15000000       1.77000000  F       0.00000000       0.00000000       0.00000000
Si       8.43963436       1.03481734       5.63920908  T       0.63537308      -0.12581798       0.58139432
Si       5.51676474       2.01942610       4.43916873  T      -0.62574407       0.59978034       0.39662779
Si       4.81217414       5.82669085       6.13955280  T       0.10455604      -0.02292601      -0.84313244
Si       0.14254314       9.22473889       3.94430992  T       2.43640610      -0.25844855      -0.86175648
Si       6.21582291       5.09306590       3.62568789  T       0.61923054      -0.07087688       0.33534941
Si       5.42000000       9.77000000       2.06000000  F       0.00000000       0.00000000       0.00000000
Si       8.42764218       7.03729915       2.74985220  T      -0.53642185       0.99608408       0.20719241
Si       3.62766615       4.29157374       9.90584484  T      -0.46217135       0.02963583       0.86273942
Si       2.25923984       1.63422919       8.94380329  T       0.91471420       0.29208892      -0.41405139
Si       0.54452773       2.78138797       6.99908792  T       0.25198700      -0.67051974      -0.80064559
Si       5.12250728       1.21813427       7.48322563  T       0.98996515       0.16423886       0.24360381
Si       6.55947954       3.46610983       9.11478853  T      -0.54854260       0.37411311       0.41324902
Si       7.85151924       0.99174395      10.46092240  T      -0.16726473       0.38733421      -0.16291381
Si       3.53998722       8.19528596      10.43291624  T       0.32870989      -0.09247378       1.03005521
Si       2.94712430       6.87632758       8.03337553  T      -0.61522789      -0.14391916      -0.37124225
Si       0.93347602       6.39164695      10.99617514  T       1.09432113      -0.06599490       0.22044237
Si       0.30203190       5.79168650       7.96700098  T       0.20652186       0.20618795      -0.47837401
Si       5.90473833       7.05214945      11.67621279  T       0.26773512      -0.11664187       1.59878480
Si       7.44360989       6.10773421       7.77565524  T       0.94837596       0.34394872      -0.39391386
Si       7.34810071       9.29633383       8.03081910  T       0.42444050      -0.06095825       0.09356306
Si       7.93000000       1.02000000       0.50000000  F       0.00000000       0.00000000       0.00000000
Si       0.91000000       6.44000000       0.98000000  F       0.00000000       0.00000000       0.00000000
Si       5.91000000       7.08000000       1.49000000  F       0.00000000       0.00000000       0.00000000
C        4.97493751       4.99695243      21.90291538  T       0.33944370      -0.14341277     -12.34380842
F        5.79772281       6.05306894      21.89286964  T       0.03706114      -0.39828520     -21.16653721
F        5.83059371       3.94358089      21.96192139  T       1.95827974       0.26948410     -17.45416478
153
Lattice="10.0 0.0 0.0 0.0 10.0 0.0 0.0 0.0 43.74" Properties=species:S:1:pos:R:3:move_mask:L:1:momenta:R:3 etch=trj_CF2_30eV_case1 idx=0 index=0 source=trj_CF2_30eV_case1/0000/OUTCAR converged=T time_fs=46.0 pbc="T T T"
O        2.15480034       4.59554741      13.88251055  T      -0.44609867      -0.60609610      -0.06333047
O        1.41175203       2.47425331      12.24866465  T      -0.48539398       0.06577412      -0.62298854
O        3.79289346       2.60551678      14.26326995  T      -0.22066689       0.96732196      -0.34667736
O        3.73760295       4.50087380      16.14419941  T       0.50931939       0.13349047       0.25035160
O        1.71601733       2.86122337      15.89021823  T      -0.97984395      -0.35786594       0.10777304
O        5.06212299       1.73050895      16.08002430  T       0.59710274       0.09373071       0.57218186
O        5.04909979       0.98755217      13.31858940  T       0.78253924       0.02221206       0.00779087
O        6.14224545       3.60259101      14.02438226  T       0.01520536      -0.11047089      -0.35529498
O        7.18267741       1.51576313      14.76026446  T       0.42095830       0.40436066      -0.10879324
O        8.94772857       2.37839518      16.46563694  T       0.50555301       0.69361502       0.34057038
O        9.67482222       0.46665255      14.85229780  T       0.63017404      -0.03963001       0.20833524
O        0.88847007       9.80314776      12.59131887  T      -0.35942813       0.44470371      -0.25413810
O        1.07123679       8.12403305      14.71852815  T      -0.99918303      -0.23456724       0.21954591
O       10.00946312       6.85135233      12.29602754  T      -0.05119933      -0.83770327      -0.23755454
O        5.34917418       6.02038904      14.67369998  T      -0.27970456      -0.99809746       0.53297437
O        5.66131571       5.47867832      12.12393824  T       0.29331618       0.03284673       0.78175958
O        7.73387157       5.87009084      13.57357071  T       0.41263209       0.08824896      -0.51625358
O        5.59510941       8.32279007      12.81328293  T       0.06329528       1.12418827       0.98061180
O        8.62271084       8.40140087      13.56907775  T       0.11514240       0.86974219      -0.63741693
O        2.40729508       5.10010124      21.39291235  T      -0.73828549      -0.04084790      -1.02084238
O        0.24664206       6.07766732      22.62654568  T      -0.29117460      -0.84758401       0.00607120
O        1.91322254       0.26684561      20.08497733  T       0.36480486       0.43706897      -0.14595320
O        2.41830763       2.89288134      19.97616126  T       1.52162799       0.71636004       0.48554569
O        3.47347195       1.32758117      18.15939899  T      -0.59554077       0.41932429      -0.31025765
O        0.81107790       1.61434574      18.09444854  T       0.57874739       0.06939396       0.56001132
O        0.36343215       4.11937818      17.81628265  T      -0.21765698       0.59675689      -0.12000505
O        9.07448432       1.42537369      21.44219940  T       0.04975292       0.54769842       0.01566131
O        5.51937591       3.01519048      18.19675316  T       0.78875820      -0.52290047      -0.20390482
O        4.69173585       3.90696678      20.61246539  T      -1.64083342      -0.08457137      -3.33906124
O        7.07568878       2.75040874      20.35830189  T       0.06503776      -0.23031264      -0.50403438
O        6.53031855       0.51914665      21.51114690  T       0.30089326       0.23704907      -0.00530462
O        6.57918030       5.20919591      19.39453644  T      -0.31017441      -0.19130743       0.36962328
O        7.95541759       9.85903387      16.73062862  T       0.26770269       0.04207557      -0.25182884
O        3.80420925       6.91630180      16.84184804  T      -0.59482436      -0.59343921       0.31815130
O        3.83978672       9.38000297      21.33180502  T       0.32025855       0.19492523      -0.21023599
O        3.23444257       8.01738766      19.14216906  T      -0.87892179      -0.03515267       0.26000823
O        1.26869538       6.59800940      17.82570034  T      -0.63253071      -0.35623406       0.47097054
O        3.23104161       5.29242824      18.96271151  T       0.31947858       0.43465859       0.54111568
O        0.16909270       5.64956144      20.02611069  T       0.38291810       1.07060860       0.53106183
O        1.54695643       7.72599272      21.20196863  T       0.67895517      -0.44619853       0.17232839
O        4.65516788       8.34204472      22.03810493  T       0.51721554       0.50102977       0.56421505
O        8.05264400       0.22516368      19.34496611  T      -0.49891012       0.38632208      -0.08234704
O        6.81816476       8.74600758      23.65107923  T      -1.01960570      -0.39531864      -0.73772626
O        6.16931145       5.78994730      16.95271418  T      -0.25419092      -0.63336793       0.74547332
O        5.71732748       0.21207487      18.19973632  T       0.12397648       0.18183106      -0.47186490
O        8.65422588       6.09566816      17.90633809  T      -0.35177342       0.26944884      -0.32810722
O        6.90380760       7.89761581      18.42656988  T      -0.51429961       0.38469513       0.37633918
O        2.01170428       4.51202154       3.82979906  T      -0.75284813      -1.75722125      -0.68467927
O        1.61381536       2.46819261       1.98338333  T       1.22067033      -0.24734571      -2.39800517
O        3.80952528       2.71430779       4.17152249  T      -0.55818232       0.44388795       0.14609278
O        3.77193670       4.48891978       6.07401366  T      -0.67951402      -0.67031077      -0.73553363
O        1.61277697       2.98535678       5.80637838  T       0.06194697       0.29609890       0.11692783
O        4.94968379       1.35431760       5.85474833  T       0.29190324       0.29414260      -0.03788168
O        5.27620022       0.95023027       3.16006918  T       1.25409239       0.33896581       0.17759801
O        6.18834150       3.54148230       3.96512776  T      -0.11090543      -0.53497569      -1.25572574
O        7.20108381       1.62231344       4.87322848  T       0.68301360       0.47132527       0.11445676
O        9.09432457       2.34080982       6.48833740  T       0.52159683       0.78861912       1.51397987
O        9.66804780       0.65261519       4.56073427  T       0.20539146       0.33052255      -0.70189820
O        1.04814051       9.72045571       2.51502712  T       0.37111790       0.50016707       0.54868645
O        1.10153825       8.06359957       4.67660373  T      -1.17932105       0.38369278      -0.08950642
O        9.87000000       6.98000000       2.02000000  F       0.00000000       0.00000000       0.00000000
O        5.36417809       6.02916409       4.62709018  T       0.01325258       0.18238110      -0.00695054
O        5.59000000       5.63000000       2.17000000  F       0.00000000       0.00000000       0.00000000
O        7.75575040       5.80864107       3.55745445  T       0.65154740      -0.26745777      -0.37709683
O        5.53953875       8.21683007       2.60215490  T      -0.55294676       0.07663910       1.63955956
O        8.67684464       8.45604753       3.56436384  T       0.27081901       0.24407756      -0.11889666
O        3.46948430       4.11923461      11.56713650  T      -0.51746546      -0.15388959      -0.01552809
O        1.08793553       4.84869861      11.42450038  T      -0.45748854      -0.15767223       0.07552971
O        1.75651056       0.80658357      10.27601544  T      -0.10330921      -1.08330421      -0.05914193
O        2.64438323       3.21208063       9.22887141  T      -0.89807211       0.61460152      -0.54064470
O        3.63687670       1.11077959       8.29501899  T       0.31343807       0.79292029       0.16104702
O        0.93815240       1.57755965       8.01799505  T       0.45840553      -0.62205072       0.71484489
O        0.46290064       4.17783764       7.81523762  T       0.04189677       0.54810162       0.10759314
O        9.23106656       1.26278894      11.21878050  T      -0.32796452      -0.67321671      -0.51584454
O        6.03839515       2.54324304       7.88396365  T      -0.00198710      -0.14859845       0.58211740
O        5.24784777       4.07578722       9.84130743  T      -0.80292786      -0.14896880      -0.01233517
O        7.46211913       2.48432114       9.99583080  T       0.25914967       0.14546838       0.00345244
O        6.61849303       0.26313559      11.32454570  T      -0.66686145       0.86361082       0.23106532
O        7.46342869       4.76596703       8.73710785  T       0.35905276      -0.66748928       0.17788769
O        8.05240179       9.84186648       6.64664338  T       0.69096266      -0.52443156      -0.18193434
O        4.09481339       7.06044252       6.83005152  T       0.54873496      -0.64628444      -0.26374186
O        4.08847178       9.62845562      11.08089248  T      -0.39066410      -0.30684303      -0.73150264
O        2.99085980       8.27681483       8.89371934  T      -0.66464236      -0.21602372      -0.06396769
O        1.54575033       6.57093883       7.13491210  T       0.14681253      -0.40646112      -0.16182904
O        3.20013586       5.66973658       9.13833123  T      -0.99624359      -0.01371977       0.10790030
O        0.23769297       6.24314912       9.55143376  T       1.30828957      -0.50102764       0.30037587
O        2.26983360       7.33450895      11.18759966  T      -1.10785791      -0.63225528       0.12860124
O        4.87347776       7.26019380      10.39305808  T      -0.82982235      -0.62724350      -0.13247736
O        8.31168784      -0.08173228       9.21782048  T      -0.62849335      -1.22007165      -0.04134571
O        7.52996550       7.15106396      11.32112261  T       0.07104783      -0.03007527       0.18456680
O        6.24565053       5.57936106       6.82319507  T       0.12155079       0.51517799      -0.07424628
O        5.85457921       9.86330120       7.97136726  T      -0.42076469       0.21239961       0.33911741
O        8.92861029       6.20939457       7.10504512  T      -0.41294268       1.04904374      -0.37753656
O        7.13600829       7.66746715       8.23471382  T      -0.17621834       0.38613499       0.37734217
O        3.55000000       4.18000000       1.53000000  F       0.00000000       0.00000000       0.00000000
O        1.14000000       4.89000000       1.35000000  F       0.00000000       0.00000000       0.00000000
O        9.29000000       1.31000000       1.44000000  F       0.00000000       0.00000000       0.00000000
O        6.84000000       0.20000000       1.30000000  F       0.00000000       0.00000000       0.00000000
O        3.95000000       9.60000000       1.25000000  F       0.00000000       0.00000000       0.00000000
O        2.28000000       7.42000000       1.08000000  F       0.00000000       0.00000000       0.00000000
O        7.52000000       7.21000000       1.37000000  F       0.00000000       0.00000000       0.00000000
Si       2.03747346       3.98094028      12.38084366  T      -0.63937344      -0.57101057      -0.73299495
Si       2.89240589       3.65463272      14.99800509  T      -0.39275996      -0.49301836       0.40934114
Si       0.83693429       1.08520491      11.56207179  T       0.23812655       0.01537476      -1.91185309
Si       8.37938442       1.00804321      15.69797524  T       0.68971621       0.48504756       1.14300752
Si       5.54514328       2.11228928      14.48696017  T      -1.02852517      -0.17903496       0.78658894
Si       4.74336584       5.75788423      16.13031002  T      -0.52284083      -0.66825005       0.28831239
Si       0.04947729       9.20570156      13.83724623  T       0.56345842       0.05544278       0.51421700
Si       6.23327129       5.17104283      13.62366514  T       0.70419262       0.22129390      -0.49238189
Si       5.31796633       9.88421650      12.19479383  T      -0.70100327      -0.33797863       0.11638310
Si       8.45010664       7.01361461      12.65506982  T       1.51892457       0.07305204       0.56147596
Si       3.14258104       4.25762704      20.21373098  T      -1.15140417      -0.64294341      -0.91024388
Si       2.11596003       1.53634126      19.06114602  T       0.70297904      -0.07451723      -0.15840132
Si       0.50206198       2.76467684      16.92570297  T      -0.42793471       0.61164291       1.39230561
Si       4.97126886       1.56132277      17.61481124  T      -0.06255306      -0.12712871      -0.13500819
Si       6.00025864       3.71910290      19.55925857  T       1.64211466      -0.41401675      -1.35880799
Si       7.69054770       1.22547006      20.61905702  T       0.10366387      -0.32551372       1.10684645
Si       2.56878645       8.80543829      20.44866810  T      -0.10694701       0.54657135       0.07769505
Si       2.86029349       6.74672694      18.14634879  T       0.74807620       0.14628517       0.32985477
Si       1.10773596       6.13600860      21.28641181  T      -0.14401964      -0.11958176      -1.66284563
Si       0.13983316       5.58275878      18.32842022  T      -0.65275456       1.13942414       0.07935087
Si       6.06200455       9.31721231      22.43447871  T      -0.97124486      -0.45463610       0.11420073
Si       7.06560383       6.24520440      18.19498432  T       0.31619625       0.20218723       0.14074406
Si       7.17890949       9.47779021      18.11957006  T      -0.35210350       0.39886646       0.51903814
Si       2.10000000       3.98000000       2.32000000  F       0.00000000       0.00000000       0.00000000
Si       2.84768789       3.70532166       5.00114724  T      -0.00752338       0.78326540       0.48787351
Si       0.89000000       1.15000000       1.77000000  F       0.00000000       0.00000000       0.00000000
Si       8.44197812       1.03471918       5.64131141  T       0.70635530       0.07070106       0.61977418
Si       5.51456898       2.02151390       4.44046435  T      -0.62886101       0.59380297       0.34285013
Si       4.81258128       5.82630721       6.13637918  T       0.12849521      -0.19871243      -0.97024452
Si       0.15112604       9.22352326       3.94124237  T       2.46718981      -0.43382465      -0.89083076
Si       6.21805005       5.09298502       3.62682712  T       0.65445262       0.02421220       0.31485476
Si       5.42000000       9.77000000       2.06000000  F       0.00000000       0.00000000       0.00000000
Si       8.42580234       7.04097431       2.75060977  T      -0.51380187       1.10501162       0.22562748
Si       3.62621466       4.29157314       9.90915343  T      -0.37049226      -0.02940302       1.02654947
Si       2.26253578       1.63530670       8.94248380  T       0.96811875       0.32379163      -0.33784407
Si       0.54533113       2.77911865       6.99624365  T       0.21131632      -0.62504072      -0.81946583
Si       5.12572422       1.21888848       7.48402674  T       0.84815317       0.26754513       0.21389208
Si       6.55748054       3.46753769       9.11615555  T      -0.59385764       0.44142637       0.36937696
Si       7.85091161       0.99282155      10.46032135  T      -0.18216465       0.22706838      -0.18147166
Si       3.54100089       8.19500263      10.43666061  T       0.24644594      -0.07124813       1.10727703
Si       2.94491757       6.87585979       8.03187498  T      -0.64529959      -0.12369643      -0.48628780
Si       0.93736235       6.39145368      10.99726580  T       1.12495153      -0.04708478       0.40287160
Si       0.30272081       5.79237288       7.96506962  T       0.18680501       0.18670316      -0.62441895
Si       5.90554396       7.05188539      11.68175513  T       0.19216699      -0.03248303       1.56776778
Si       7.44688323       6.10891939       7.77427605  T       0.92026042       0.33318186      -0.39253531
Si       7.34981712       9.29600342       8.03115344  T       0.55397584      -0.12779963       0.09595953
Si       7.93000000       1.02000000       0.50000000  F       0.00000000       0.00000000       0.00000000
Si       0.91000000       6.44000000       0.98000000  F       0.00000000       0.00000000       0.00000000
Si       5.91000000       7.08000000       1.49000000  F       0.00000000       0.00000000       0.00000000
C        4.97846318       4.99548673      21.80285640  T       0.52096762      -0.21728803     -12.12061649
F        5.79778938       6.05099676      21.78320851  T      -0.01182789      -0.39993333     -21.25497809
F        5.84209106       3.94519633      21.87389460  T       2.51194551       0.35675417     -16.57502098
153
Lattice="10.0 0.0 0.0 0.0 10.0 0.0 0.0 0.0 43.74" Properties=species:S:1:pos:R:3:move_mask:L:1:momenta:R:3 etch=trj_CF2_30eV_case1 idx=0 index=0 source=trj_CF2_30eV_case1/0000/OUTCAR converged=T time_fs=47.0 pbc="T T T"
O        2.15198786       4.59183156      13.88215777  T      -0.46984239      -0.60462156      -0.05149841
O        1.40868532       2.47446570      12.24495122  T      -0.51351034       0.00278662      -0.58699757
O        3.79181717       2.61152995      14.26103434  T      -0.12787120       0.98859973      -0.38166639
O        3.74065041       4.50152987      16.14563129  T       0.48035768       0.07678813       0.21554279
O        1.71004100       2.85918007      15.89069901  T      -0.96500473      -0.30695424       0.04840657
O        5.06595662       1.73110700      16.08291472  T       0.65085471       0.10121628       0.36713579
O        5.05416248       0.98749808      13.31857710  T       0.86513764      -0.03916632      -0.01080437
O        6.14239371       3.60210597      14.02212075  T       0.03294812      -0.04788990      -0.38111869
O        7.18503956       1.51814402      14.75950263  T       0.34929858       0.37086422      -0.13784185
O        8.95120617       2.38262446      16.46769292  T       0.62521571       0.68267731       0.32889083
O        9.67876425       0.46614002      14.85336418  T       0.65240453      -0.12587906       0.14089526
O        0.88630799       9.80591721      12.58966103  T      -0.34500596       0.45690525      -0.28507059
O        1.06487251       8.12283084      14.71968972  T      -1.07310645      -0.15769340       0.15934938
O       10.00919551       6.84617574      12.29413206  T      -0.03534208      -0.84790863      -0.37876344
O        5.34720185       6.01444086      14.67685453  T      -0.36120719      -0.93897094       0.49271325
O        5.66309657       5.47924824      12.12885964  T       0.28527488       0.15329312       0.81865410
O        7.73651321       5.87048287      13.57054122  T       0.44710186       0.03884977      -0.46927948
O        5.59551127       8.32944909      12.81886392  T       0.06749844       1.04205087       0.83655714
O        8.62346928       8.40683598      13.56508180  T       0.13167402       0.89949106      -0.66429693
O        2.40268284       5.09993209      21.38673267  T      -0.76262759      -0.01534331      -0.99086254
O        0.24466789       6.07239481      22.62691305  T      -0.34985228      -0.86972711       0.11057877
O        1.91548071       0.26933059      20.08404239  T       0.37067917       0.37172748      -0.15769823
O        2.42726335       2.89662556      19.97889690  T       1.39086530       0.49356385       0.40289277
O        3.46950403       1.33021333      18.15762719  T      -0.69332407       0.43803288      -0.26831124
O        0.81485487       1.61486245      18.09792622  T       0.64993955       0.09986078       0.57221499
O        0.36219389       4.12284450      17.81538197  T      -0.18597545       0.53370804      -0.17175813
O        9.07490733       1.42876690      21.44232846  T       0.08813523       0.55760580       0.02648685
O        5.52420538       3.01200960      18.19570083  T       0.78386411      -0.51302640      -0.13908278
O        4.67973697       3.90662207      20.58956762  T      -2.27853500      -0.02563775      -4.12695254
O        7.07611976       2.74875216      20.35477169  T       0.07795488      -0.31240785      -0.64825771
O        6.53176922       0.52045138      21.51116176  T       0.16965325       0.18543953       0.01254390
O        6.57738824       5.20823266      19.39673308  T      -0.27205628      -0.12192111       0.34295516
O        7.95687620       9.85885582      16.72947225  T       0.20653945      -0.10079211      -0.12277919
O        3.80055957       6.91270306      16.84377687  T      -0.59259541      -0.57806198       0.30874758
O        3.84180747       9.38132110      21.33071432  T       0.33761597       0.23430145      -0.14545598
O        3.22878119       8.01709990      19.14372451  T      -0.96422106      -0.05809870       0.24598957
O        1.26510039       6.59614267      17.82837547  T      -0.53393168      -0.24962350       0.40007744
O        3.23302404       5.29539124      18.96571253  T       0.32603025       0.53107465       0.43514279
O        0.17157540       5.65613212      20.02904253  T       0.42227063       1.06816956       0.41919295
O        1.55142039       7.72350322      21.20278813  T       0.77489088      -0.36384167       0.09477255
O        4.65868917       8.34560910      22.04152983  T       0.62770479       0.65893174       0.55070301
O        8.04937060       0.22759874      19.34452526  T      -0.56683410       0.40659184      -0.06100144
O        6.81180443       8.74366255      23.64647145  T      -1.04970414      -0.37006977      -0.75950593
O        6.16757152       5.78587978      16.95725513  T      -0.31298567      -0.69105466       0.73353648
O        5.71812810       0.21333666      18.19673987  T       0.13543638       0.22907634      -0.50381458
O        8.65212698       6.09723344      17.90430283  T      -0.33102390       0.24036853      -0.33440524
O        6.90066913       7.89973096      18.42890085  T      -0.50780034       0.30292545       0.38284448
O        2.00695927       4.50135222       3.82558135  T      -0.79330240      -1.71632911      -0.68554641
O        1.62152461       2.46677816       1.96875615  T       1.29045932      -0.21370453      -2.36710911
O        3.80631672       2.71693609       4.17237017  T      -0.48545642       0.41091174       0.12941052
O        3.76803686       4.48541385       6.06975660  T      -0.58700697      -0.46767175      -0.64810845
O        1.61340063       2.98714462       5.80701083  T       0.14104247       0.28594869       0.08903545
O        4.95139039       1.35603896       5.85493961  T       0.26391384       0.26655113       0.10071919
O        5.28404845       0.95225183       3.16130544  T       1.30152193       0.31894573       0.22432435
O        6.18760888       3.53828645       3.95730053  T      -0.12760194      -0.50412990      -1.29356602
O        7.20486508       1.62512452       4.87363760  T       0.54881234       0.44459414       0.01990236
O        9.09720243       2.34534919       6.49735357  T       0.41099818       0.68671162       1.42000571
O        9.66932928       0.65443511       4.55655087  T       0.21195523       0.26174580      -0.66007979
O        1.05039436       9.72379464       2.51848085  T       0.36404369       0.58749723       0.57458529
O        1.09404065       8.06639332       4.67586976  T      -1.26067096       0.52415648      -0.14825590
O        9.87000000       6.98000000       2.02000000  F       0.00000000       0.00000000       0.00000000
O        5.36402155       6.03040154       4.62693412  T      -0.06326700       0.21989868      -0.04559257
O        5.59000000       5.63000000       2.17000000  F       0.00000000       0.00000000       0.00000000
O        7.75980138       5.80686127       3.55522423  T       0.66687380      -0.31243236      -0.34897206
O        5.53622986       8.21732233       2.61219324  T      -0.52370941       0.08232421       1.62713875
O        8.67855612       8.45749551       3.56364901  T       0.28686876       0.22820828      -0.11397828
O        3.46619110       4.11835706      11.56683234  T      -0.55425050      -0.13200635      -0.08285425
O        1.08505084       4.84773172      11.42485221  T      -0.48169681      -0.15793157       0.03945805
O        1.75605142       0.79993226      10.27540130  T      -0.04414311      -1.08213161      -0.14383907
O        2.63879128       3.21566372       9.22557026  T      -0.92215692       0.55294339      -0.53334318
O        3.63931238       1.11553891       8.29563073  T       0.48091398       0.75693924       0.03787740
O        0.94114961       1.57374108       8.02230084  T       0.51597206      -0.61938668       0.68433688
O        0.46309912       4.18141658       7.81602352  T       0.02285857       0.61379736       0.14636443
O        9.22943863       1.25861211      11.21586375  T      -0.20084966      -0.68699748      -0.43400041
O        6.03818241       2.54215297       7.88738055  T      -0.06693039      -0.20564222       0.53063977
O        5.24269842       4.07483638       9.84108777  T      -0.87207276      -0.16093823      -0.05930842
O        7.46365037       2.48520334       9.99597596  T       0.23881715       0.14258029       0.04321894
O        6.61499867       0.26876657      11.32555693  T      -0.47175725       0.97016895       0.09806675
O        7.46581857       4.76207194       8.73836807  T       0.41936893      -0.59842234       0.23075328
O        8.05674446       9.83827585       6.64556896  T       0.72325008      -0.64450642      -0.16768330
O        4.09784756       7.05657226       6.82880358  T       0.43772687      -0.61342730      -0.14158240
O        4.08585532       9.62640440      11.07651416  T      -0.45994451      -0.35962438      -0.69238239
O        2.98675813       8.27542194       8.89321201  T      -0.67048467      -0.23770756      -0.09902142
O        1.54675963       6.56839353       7.13459497  T       0.18162601      -0.42205273       0.05704126
O        3.19398723       5.66974910       9.13877176  T      -1.00573343       0.01672487       0.03631544
O        0.24566034       6.24029859       9.55288321  T       1.28592293      -0.42730053       0.16937593
O        2.26324909       7.33088722      11.18824420  T      -1.03143371      -0.54377081       0.08160309
O        4.86881972       7.25625030      10.39256485  T      -0.68490625      -0.65803262      -0.02507581
O        8.30739575      -0.08900702       9.21781296  T      -0.76811710      -1.14726219       0.04140631
O        7.53015500       7.15098658      11.32218755  T      -0.00951476       0.00497434       0.16380762
O        6.24637643       5.58249085       6.82283949  T       0.11493928       0.50365846      -0.04167645
O        5.85177068       9.86462968       7.97355742  T      -0.49060724       0.21861548       0.37411649
O        8.92635632       6.21577975       7.10297529  T      -0.31845357       1.03031274      -0.29666385
O        7.13502516       7.66979977       8.23698852  T      -0.14394196       0.37131720       0.36316618
O        3.55000000       4.18000000       1.53000000  F       0.00000000       0.00000000       0.00000000
O        1.14000000       4.89000000       1.35000000  F       0.00000000       0.00000000       0.00000000
O        9.29000000       1.31000000       1.44000000  F       0.00000000       0.00000000       0.00000000
O        6.84000000       0.20000000       1.30000000  F       0.00000000       0.00000000       0.00000000
O        3.95000000       9.60000000       1.25000000  F       0.00000000       0.00000000       0.00000000
O        2.28000000       7.42000000       1.08000000  F       0.00000000       0.00000000       0.00000000
O        7.52000000       7.21000000       1.37000000  F       0.00000000       0.00000000       0.00000000
Si       2.03534910       3.97876495      12.37806022  T      -0.57650313      -0.67201514      -0.85677395
Si       2.89091627       3.65280758      14.99973294  T      -0.46103037      -0.54843884       0.57941551
Si       0.83762514       1.08543880      11.55556936  T       0.15499479       0.11738499      -1.80360842
Si       8.38182570       1.01004628      15.70178473  T       0.70637066       0.66083556       1.03239287
Si       5.54143134       2.11150411      14.48972729  T      -1.09199685      -0.26835761       0.79369496
Si       4.74162584       5.75571459      16.13144816  T      -0.47025794      -0.57126559       0.36340924
Si       0.05142199       9.20582333      13.83934644  T       0.54874948       0.01565672       0.68431964
Si       6.23579647       5.17162265      13.62197223  T       0.74000873       0.10865818      -0.47162033
Si       5.31549427       9.88285500      12.19525018  T      -0.71177981      -0.43849946       0.14330944
Si       8.45549725       7.01402395      12.65724292  T       1.56123137       0.16226762       0.67905596
Si       3.13822110       4.25576578      20.21036996  T      -1.34912760      -0.41255556      -1.01371785
Si       2.11856314       1.53601980      19.06059508  T       0.78492851      -0.10743390      -0.15478359
Si       0.50028947       2.76665299      16.93072062  T      -0.58408137       0.51794573       1.47611302
Si       4.97101536       1.56076007      17.61455927  T      -0.08324578      -0.19488305      -0.00750403
Si       6.00636601       3.71739024      19.55444700  T       1.85368771      -0.56828310      -1.39586919
Si       7.69106180       1.22443177      20.62275419  T       0.19150784      -0.26757412       1.00583418
Si       2.56829834       8.80721838      20.44879711  T      -0.17174790       0.47095011      -0.00250843
Si       2.86300808       6.74713808      18.14770008  T       0.79942533       0.08779672       0.44342294
Si       1.10719554       6.13556939      21.28054244  T      -0.16551345      -0.12958680      -1.68650768
Si       0.13728333       5.58688699      18.32910821  T      -0.80556164       1.21870104       0.31444289
Si       6.05854187       9.31529043      22.43503357  T      -1.00861321      -0.63990986       0.19880003
Si       7.06679597       6.24610751      18.19547091  T       0.36286479       0.31454128       0.13777350
Si       7.17770451       9.47932672      18.12149269  T      -0.33532328       0.47987663       0.57872320
Si       2.10000000       3.98000000       2.32000000  F       0.00000000       0.00000000       0.00000000
Si       2.84763472       3.70778292       5.00293239  T      -0.02586600       0.62149321       0.52972552
Si       0.89000000       1.15000000       1.77000000  F       0.00000000       0.00000000       0.00000000
Si       8.44458157       1.03531514       5.64353759  T       0.78307718       0.27019903       0.65195911
Si       5.51237136       2.02357776       4.44156004  T      -0.62695732       0.58601192       0.28276106
Si       4.81307356       5.82529122       6.13277646  T       0.15297205      -0.38330781      -1.08775294
Si       0.15977458       9.22172267       3.93808774  T       2.47373512      -0.59239707      -0.91153186
Si       6.22040126       5.09323234       3.62788338  T       0.69010923       0.11663039       0.28803655
Si       5.42000000       9.77000000       2.06000000  F       0.00000000       0.00000000       0.00000000
Si       8.42405850       7.04502464       2.75142838  T      -0.48171317       1.21023977       0.24216711
Si       3.62505733       4.29137259       9.91300732  T      -0.29455318      -0.08430484       1.17370959
Si       2.26600224       1.63649160       8.94145401  T       1.01278397       0.35319709      -0.24890066
Si       0.54602890       2.77702815       6.99339286  T       0.19165112      -0.56830069      -0.80441131
Si       5.12843289       1.22000699       7.48471910  T       0.69975640       0.37199034       0.18171541
Si       6.55533005       3.46919097       9.11737759  T      -0.63502826       0.50269150       0.33032380
Si       7.85023523       0.99332412      10.45964932  T      -0.20598853       0.05932768      -0.20339614
Si       3.54168622       8.19477654      10.44063773  T       0.14145104      -0.06012795       1.16267373
Si       2.94261857       6.87546163       8.02997858  T      -0.66793715      -0.10410086      -0.59710846
Si       0.94132607       6.39130213      10.99898738  T       1.13826005      -0.04230024       0.57995801
Si       0.30333556       5.79299585       7.96264440  T       0.16430385       0.17029436      -0.76022523
Si       5.90607938       7.05193221      11.68716371  T       0.11370643       0.06080409       1.52250605
Si       7.45002919       6.11006179       7.77292243  T       0.87578597       0.31965837      -0.37931264
Si       7.35195519       9.29544175       8.03148032  T       0.66472790      -0.19294244       0.08920173
Si       7.93000000       1.02000000       0.50000000  F       0.00000000       0.00000000       0.00000000
Si       0.91000000       6.44000000       0.98000000  F       0.00000000       0.00000000       0.00000000
Si       5.91000000       7.08000000       1.49000000  F       0.00000000       0.00000000       0.00000000
C        4.98342985       4.99336754      21.70474940  T       0.69138518      -0.30321826     -11.86576910
F        5.79759511       6.04896389      21.67307023  T      -0.06409519      -0.38275396     -21.35044164
F        5.85675300       3.94728495      21.79068992  T       3.17876763       0.45338886     -15.59566974
153
Lattice="10.0 0.0 0.0 0.0 10.0 0.0 0.0 0.0 43.74" Properties=species:S:1:pos:R:3:move_mask:L:1:momenta:R:3 etch=trj_CF2_30eV_case1 idx=0 index=0 source=trj_CF2_30eV_case1/0000/OUTCAR converged=T time_fs=48.0 pbc="T T T"
O        2.14903394       4.58811935      13.88187776  T      -0.49209913      -0.60513593      -0.03989448
O        1.40544852       2.47428295      12.24145391  T      -0.54060784      -0.06258188      -0.55252530
O        3.79134280       2.61762734      14.25858279  T      -0.02494200       0.99500150      -0.41696929
O        3.74347189       4.50178357      16.14684160  T       0.43607812       0.00285324       0.17840433
O        1.70418493       2.85746084      15.89081052  T      -0.94129780      -0.25260119      -0.01205468
O        5.07010476       1.73175171      16.08451911  T       0.69931060       0.10864902       0.15518565
O        5.05970707       0.98707831      13.31846694  T       0.93947275      -0.09686806      -0.02408637
O        6.14264826       3.60199608      14.01970615  T       0.04977510       0.01111543      -0.40501538
O        7.18697611       1.52031316      14.75858791  T       0.28263957       0.33535709      -0.15854421
O        8.95538132       2.38676224      16.46967136  T       0.73218545       0.66360226       0.31509318
O        9.68281573       0.46512376      14.85404886  T       0.66555371      -0.20332900       0.08437884
O        0.88423176       9.80875114      12.58782920  T      -0.33158792       0.46545432      -0.31041262
O        1.05807056       8.12208880      14.72049112  T      -1.14150786      -0.08494691       0.10243931
O       10.00903371       6.84094879      12.29139070  T      -0.01711156      -0.85392097      -0.51265500
O        5.34475581       6.00886449      14.67973023  T      -0.43389404      -0.87712698       0.44213049
O        5.66480282       5.48056427      12.13396258  T       0.26900319       0.27563075       0.84096748
O        7.73935424       5.87056260      13.56782145  T       0.47774367      -0.01329935      -0.41549002
O        5.59593699       8.33555715      12.82354806  T       0.07105345       0.94510935       0.68881100
O        8.62432514       8.41243270      13.56092110  T       0.14688097       0.92239626      -0.69099522
O        2.39794569       5.09990201      21.38075894  T      -0.77915458       0.00451129      -0.95384374
O        0.24236815       6.06699064      22.62787082  T      -0.39709491      -0.89040468       0.19807793
O        1.91777276       0.27140319      20.08305006  T       0.37581966       0.30278378      -0.16469035
O        2.43533906       2.89884986      19.98108350  T       1.23554232       0.22293098       0.30725909
O        3.46500041       1.33295832      18.15608751  T      -0.76930188       0.45594872      -0.23513715
O        0.81904027       1.61558069      18.10146748  T       0.71158533       0.13488377       0.58057966
O        0.36114503       4.12594939      17.81419232  T      -0.15611775       0.47987153      -0.21377567
O        9.07556745       1.43222002      21.44252581  T       0.12698755       0.56720419       0.03792357
O        5.52899485       3.00889100      18.19504048  T       0.77570493      -0.50317534      -0.07696366
O        4.66369365       3.90666828      20.56175835  T      -2.94861535       0.04171431      -4.93101138
O        7.07667768       2.74653609      20.35031756  T       0.10740016      -0.41359131      -0.80513922
O        6.53238398       0.52139951      21.51132364  T       0.02918314       0.12126998       0.04219368
O        6.57585732       5.20770068      19.39871222  T      -0.22470349      -0.05163703       0.29773220
O        7.95794746       9.85779422      16.72913603  T       0.14212302      -0.24470002       0.01409686
O        3.79694753       6.90921207      16.84562509  T      -0.58264670      -0.55832024       0.29199857
O        3.84392690       9.38287808      21.33001353  T       0.35212847       0.27268680      -0.08350008
O        3.22261482       8.01667986      19.14518285  T      -1.04324109      -0.07813339       0.22845829
O        1.26218136       6.59496408      17.83061027  T      -0.41337593      -0.13269639       0.32780083
O        3.23504227       5.29895364      18.96804344  T       0.33111373       0.62968266       0.32326867
O        0.17424065       5.66266079      20.03121105  T       0.44227654       1.05695958       0.28287777
O        1.55646571       7.72153077      21.20313533  T       0.86785064      -0.27850993       0.01876434
O        4.66285136       8.35012112      22.04485885  T       0.72557243       0.80916554       0.53289311
O        8.04569056       0.23015256      19.34421979  T      -0.63122034       0.42492155      -0.03823593
O        6.80530397       8.74144653      23.64179488  T      -1.06487578      -0.35362176      -0.75956527
O        6.16546673       5.78146861      16.96172041  T      -0.37258025      -0.74516464       0.72110205
O        5.71897635       0.21488534      18.19355475  T       0.13952328       0.27507041      -0.53324335
O        8.65017005       6.09861941      17.90223627  T      -0.30567158       0.21114862      -0.33841374
O        6.89757514       7.90132454      18.43126930  T      -0.49979029       0.21546624       0.38851907
O        2.00195972       4.49096623       3.82142070  T      -0.83557783      -1.66515475      -0.66582488
O        1.62965739       2.46556276       1.95431460  T       1.35832302      -0.18304269      -2.33760335
O        3.80357935       2.71934010       4.17310585  T      -0.40489090       0.37099472       0.10976883
O        3.76476460       4.48321397       6.06608467  T      -0.47585321      -0.24589015      -0.54549995
O        1.61450491       2.98886370       5.80747291  T       0.21808248       0.27356531       0.06179421
O        4.95292357       1.35759154       5.85598513  T       0.23548153       0.23943875       0.23934777
O        5.29217126       0.95413955       3.16281457  T       1.34346552       0.29522783       0.26629992
O        6.18677616       3.53531229       3.94924882  T      -0.14351451      -0.46273561      -1.32883682
O        7.20782653       1.62777350       4.87348579  T       0.41657000       0.41830118      -0.06792653
O        9.09932504       2.34921098       6.50574497  T       0.27635903       0.56862354       1.31099541
O        9.67064908       0.65582384       4.55263694  T       0.21781844       0.19018151      -0.61415307
O        1.05262082       9.72766890       2.52206369  T       0.36226263       0.67442276       0.59067334
O        1.08608468       8.07001039       4.67479849  T      -1.32826847       0.65138967      -0.19906620
O        9.87000000       6.98000000       2.02000000  F       0.00000000       0.00000000       0.00000000
O        5.36341214       6.03185572       4.62651214  T      -0.13410353       0.25297260      -0.09370440
O        5.59000000       5.63000000       2.17000000  F       0.00000000       0.00000000       0.00000000
O        7.76392744       5.80480509       3.55317299  T       0.67616258      -0.35718419      -0.31896574
O        5.53312029       8.21782751       2.62210099  T      -0.48809753       0.08101430       1.59712258
O        8.68036790       8.45885612       3.56296394  T       0.30331659       0.21566759      -0.10924141
O        3.46268991       4.11761299      11.56612775  T      -0.58513596      -0.11048402      -0.14568117
O        1.08202681       4.84675179      11.42498929  T      -0.50272952      -0.16212549       0.00567654
O        1.75598807       0.79330865      10.27422322  T       0.02519433      -1.07432808      -0.24205875
O        2.63307520       3.21887546       9.22233728  T      -0.93830014       0.49395797      -0.51830518
O        3.64278512       1.12007057       8.29548350  T       0.65005191       0.71909372      -0.08559372
O        0.94446744       1.56997945       8.02636246  T       0.56279568      -0.60353500       0.63527320
O        0.46318249       4.18533118       7.81701276  T       0.00442969       0.65693034       0.17364478
O        9.22861076       1.25435740      11.21345209  T      -0.06829832      -0.69859461      -0.35177159
O        6.03757898       2.54072962       7.89047804  T      -0.12891573      -0.25660049       0.47842749
O        5.23716616       4.07380909       9.84057821  T      -0.92732791      -0.17392021      -0.10678357
O        7.46504293       2.48607874       9.99635469  T       0.21397554       0.14324431       0.07945064
O        6.61269013       0.27503973      11.32575196  T      -0.28191580       1.07220064      -0.03385238
O        7.46857619       4.75864721       8.73992266  T       0.47864517      -0.51463250       0.27390957
O        8.06127918       9.83396279       6.64458592  T       0.75371177      -0.75922326      -0.15262247
O        4.10017283       7.05291732       6.82832098  T       0.31866115      -0.57684274      -0.01526940
O        4.08284281       9.62405881      11.07241552  T      -0.51946283      -0.40248013      -0.64029800
O        2.98263751       8.27389671       8.89252752  T      -0.67076750      -0.25901963      -0.12154849
O        1.54797584       6.56576288       7.13559464  T       0.21399070      -0.43426473       0.26659567
O        3.18779706       5.66992855       9.13878639  T      -1.00963334       0.04020622      -0.03046734
O        0.25347231       6.23790497       9.55349361  T       1.25799231      -0.35214802       0.02799362
O        2.25722502       7.32786951      11.18860552  T      -0.92558317      -0.43572073       0.03660377
O        4.86508973       7.25210937      10.39277900  T      -0.52851863      -0.69108347       0.09735065
O        8.30227380      -0.09579569       9.21835350  T      -0.89848972      -1.06196581       0.13695821
O        7.52984889       7.15112606      11.32315074  T      -0.08996595       0.04055566       0.15174339
O        6.24706189       5.58553819       6.82268166  T       0.10832709       0.48830584      -0.00997186
O        5.84859291       9.86596751       7.97595854  T      -0.54071796       0.21541766       0.40778386
O        8.92472619       6.22203958       7.10140171  T      -0.21030812       1.00827796      -0.21611336
O        7.13424188       7.67200192       8.23916834  T      -0.11111052       0.34364737       0.34646473
O        3.55000000       4.18000000       1.53000000  F       0.00000000       0.00000000       0.00000000
O        1.14000000       4.89000000       1.35000000  F       0.00000000       0.00000000       0.00000000
O        9.29000000       1.31000000       1.44000000  F       0.00000000       0.00000000       0.00000000
O        6.84000000       0.20000000       1.30000000  F       0.00000000       0.00000000       0.00000000
O        3.95000000       9.60000000       1.25000000  F       0.00000000       0.00000000       0.00000000
O        2.28000000       7.42000000       1.08000000  F       0.00000000       0.00000000       0.00000000
O        7.52000000       7.21000000       1.37000000  F       0.00000000       0.00000000       0.00000000
Si       2.03343377       3.97624544      12.37486310  T      -0.52008819      -0.76764015      -0.96906957
Si       2.88917013       3.65080937      15.00206053  T      -0.53921560      -0.59202828       0.75170550
Si       0.83800883       1.08601908      11.54947070  T       0.06305586       0.21304987      -1.68157477
Si       8.38432517       1.01266554      15.70518115  T       0.72274125       0.83643337       0.90747477
Si       5.53751733       2.11042262      14.49249908  T      -1.14400208      -0.34809062       0.78894023
Si       4.74008642       5.75389418      16.13285634  T      -0.40852340      -0.46886488       0.44241263
Si       0.05331706       9.20582027      13.84201632  T       0.53519894      -0.01572351       0.83914497
Si       6.23844839       5.17179534      13.62038998  T       0.77650995      -0.01089211      -0.42911218
Si       5.31299417       9.88116184      12.19578704  T      -0.71642625      -0.52746522       0.16179910
Si       8.46101231       7.01475607      12.65980617  T       1.58973469       0.25732523       0.78418306
Si       3.13309431       4.25479108      20.20662746  T      -1.59240851      -0.13665576      -1.12871711
Si       2.12144537       1.53559990      19.06007449  T       0.86209915      -0.13109019      -0.14094586
Si       0.49798869       2.76829780      16.93602272  T      -0.72893612       0.42236837       1.55477666
Si       4.97068140       1.55996007      17.61476438  T      -0.10864018      -0.26218181       0.12510518
Si       6.01324277       3.71511255      19.54947841  T       2.08136158      -0.73646550      -1.44761427
Si       7.69189226       1.22360150      20.62608537  T       0.28390033      -0.20680673       0.89803117
Si       2.56758887       8.80873138      20.44865893  T      -0.23307950       0.39424562      -0.07505201
Si       2.86585773       6.74733554      18.14945254  T       0.82543520       0.02426949       0.55881433
Si       1.10657586       6.13511474      21.27465662  T      -0.18915748      -0.12807634      -1.67188690
Si       0.13419985       5.59126798      18.33061864  T      -0.95691334       1.28376582       0.54852590
Si       6.05495104       9.31276426      22.43584278  T      -1.04439195      -0.79950064       0.25918008
Si       7.06812588       6.24740493      18.19594850  T       0.39474266       0.42719887       0.13525146
Si       7.17657262       9.48114598      18.12360908  T      -0.31057774       0.56001236       0.63004524
Si       2.10000000       3.98000000       2.32000000  F       0.00000000       0.00000000       0.00000000
Si       2.84749100       3.70965510       5.00483370  T      -0.05876281       0.44703745       0.55427879
Si       0.89000000       1.15000000       1.77000000  F       0.00000000       0.00000000       0.00000000
Si       8.44745744       1.03660725       5.64586376  T       0.86136989       0.46790307       0.67675752
Si       5.51018813       2.02561062       4.44243813  T      -0.62075010       0.57600455       0.21890258
Si       4.81365020       5.82362364       6.12878526  T       0.17642624      -0.57004856      -1.19165313
Si       0.16840219       9.21940097       3.93487530  T       2.45506682      -0.73129511      -0.92394134
Si       6.22287746       5.09379704       3.62883576  T       0.72586591       0.20556722       0.25557616
Si       5.42000000       9.77000000       2.06000000  F       0.00000000       0.00000000       0.00000000
Si       8.42244195       7.04943361       2.75230210  T      -0.44123006       1.30970360       0.25722021
Si       3.62413394       4.29099025       9.91734053  T      -0.23718389      -0.13297609       1.29987963
Si       2.26961399       1.63777303       8.94075352  T       1.05179401       0.37869694      -0.15011789
Si       0.54669441       2.77515524       6.99065301  T       0.19267904      -0.50075246      -0.75628805
Si       5.13061449       1.22148833       7.48529691  T       0.54724507       0.47441181       0.14869525
Si       6.55304396       3.47104561       9.11847112  T      -0.67123478       0.55630035       0.29580959
Si       7.84946461       0.99323315      10.45889563  T      -0.23540204      -0.11151726      -0.22803869
Si       3.54196877       8.19456869      10.44476723  T       0.01675439      -0.06121433       1.19408051
Si       2.94025387       6.87513094       8.02770570  T      -0.68279603      -0.08511173      -0.70109249
Si       0.94530402       6.39114163      11.00130937  T       1.13290877      -0.05227654       0.74495761
Si       0.30386811       5.79356945       7.95976600  T       0.13996552       0.15879031      -0.88311110
Si       5.90633883       7.05231877      11.69239074  T       0.03477870       0.16145443       1.46418689
Si       7.45299319       6.11115341       7.77163537  T       0.81656701       0.30431571      -0.35457373
Si       7.35444203       9.29465700       8.03176698  T       0.75278834      -0.25515424       0.07292171
Si       7.93000000       1.02000000       0.50000000  F       0.00000000       0.00000000       0.00000000
Si       0.91000000       6.44000000       0.98000000  F       0.00000000       0.00000000       0.00000000
Si       5.91000000       7.08000000       1.49000000  F       0.00000000       0.00000000       0.00000000
C        4.98974134       4.99049974      21.60887006  T       0.85012703      -0.39979326     -11.57490721
F        5.79711675       6.04707134      21.56242980  T      -0.12249455      -0.34544018     -21.44784346
F        5.87509577       3.94990882      21.71271898  T       3.92805674       0.56506291     -14.55949164
153
Lattice="10.0 0.0 0.0 0.0 10.0 0.0 0.0 0.0 43.74" Properties=species:S:1:pos:R:3:move_mask:L:1:momenta:R:3 etch=trj_CF2_30eV_case1 idx=0 index=0 source=trj_CF2_30eV_case1/0000/OUTCAR converged=T time_fs=49.0 pbc="T T T"
O        2.14594885       4.58439501      13.88166478  T      -0.51251401      -0.60876792      -0.02991152
O        1.40205108       2.47369642      12.23816446  T      -0.56564715      -0.12838041      -0.51921530
O        3.79152617       2.62372222      14.25591452  T       0.08592074       0.98814734      -0.45215339
O        3.74598003       4.50153699      16.14782003  T       0.37876701      -0.08560086       0.14028024
O        1.69849321       2.85608185      15.89055374  T      -0.91209983      -0.19641625      -0.07108543
O        5.07453095       1.73243811      16.08482729  T       0.74119864       0.11451201      -0.05310045
O        5.06568223       0.98631596      13.31829133  T       1.00538774      -0.15075292      -0.03216408
O        6.14300271       3.60222948      14.01715268  T       0.06546095       0.06337211      -0.42622175
O        7.18852283       1.52225788      14.75757224  T       0.22258999       0.29775322      -0.17070715
O        8.96016641       2.39075543      16.47155578  T       0.82333793       0.63542167       0.29806030
O        9.68691679       0.46366395      14.85442490  T       0.66835153      -0.27002971       0.04067725
O        0.88223331       9.81162311      12.58586402  T      -0.31976015       0.46907341      -0.32816602
O        1.05086889       8.12177693      14.72095613  T      -1.20307696      -0.01784435       0.04998423
O       10.00898599       6.83570024      12.28785563  T       0.00142495      -0.85476668      -0.63689496
O        5.34189183       6.00367429      14.68226425  T      -0.49730926      -0.81330420       0.38153617
O        5.66638404       5.48263358      12.13915923  T       0.24458627       0.39839586       0.84935542
O        7.74237388       5.87031626      13.56545095  T       0.50546703      -0.06716657      -0.35566141
O        5.59638241       8.34103003      12.82731832  T       0.07390973       0.83556465       0.53918021
O        8.62527042       8.41814938      13.55659823  T       0.16082310       0.93861767      -0.71703340
O        2.39312881       5.09997705      21.37503269  T      -0.78873106       0.01891960      -0.91036190
O        0.23981495       6.06146483      22.62930975  T      -0.43234142      -0.90929794       0.26707853
O        1.92009378       0.27304221      20.08202865  T       0.38009118       0.23055968      -0.16724840
O        2.44239496       2.89929154      19.98265137  T       1.05955154      -0.08479016       0.20207643
O        3.46010644       1.33580907      18.15471828  T      -0.81988975       0.47234531      -0.21321831
O        0.82357219       1.61652578      18.10504650  T       0.76264051       0.17358772       0.58439719
O        0.36027190       4.12876258      17.81277897  T      -0.12886046       0.43937371      -0.24435613
O        9.07646731       1.43573096      21.44279541  T       0.16618370       0.57643181       0.05002745
O        5.53372388       3.00582514      18.19474231  T       0.76416903      -0.49637766      -0.02183484
O        4.64358540       3.90713834      20.52907537  T      -3.58946852       0.11107135      -5.70573084
O        7.07748073       2.74362602      20.34485974  T       0.15881194      -0.53956776      -0.97531833
O        6.53211653       0.52192112      21.51169777  T      -0.11702182       0.04704319       0.08115156
O        6.57465193       5.20759053      19.40034095  T      -0.16537763       0.01439578       0.22739706
O        7.95862131       9.85585984      16.72964763  T       0.07767735      -0.38407582       0.15218031
O        3.79341886       6.90585592      16.84734947  T      -0.56557586      -0.53412266       0.26854130
O        3.84612302       9.38466720      21.32968081  T       0.36232986       0.30990210      -0.02581618
O        3.21598505       8.01614713      19.14652391  T      -1.11498994      -0.09471327       0.20786362
O        1.26005514       6.59452611      17.83240086  T      -0.27687269      -0.00909554       0.25567379
O        3.23708488       5.30312425      18.96967359  T       0.33364252       0.72885187       0.20704441
O        0.17696859       5.66909444      20.03247470  T       0.44272406       1.03730489       0.12505995
O        1.56206627       7.72008147      21.20302445  T       0.95529962      -0.19415701      -0.05417049
O        4.66756988       8.35552447      22.04806409  T       0.80847889       0.94872158       0.51027706
O        8.04162806       0.23281182      19.34405859  T      -0.69128438       0.44085955      -0.01399279
O        6.79876068       8.73930047      23.63719140  T      -1.06339572      -0.34753684      -0.73530948
O        6.16299961       5.77673816      16.96611169  T      -0.43058902      -0.79492691       0.70973907
O        5.71982775       0.21670955      18.19019787  T       0.13654447       0.31858895      -0.55966530
O        8.64838070       6.09982706      17.90015073  T      -0.27663270       0.18240105      -0.34068403
O        6.89453520       7.90237274      18.43366969  T      -0.49020359       0.12590516       0.39328902
O        1.99669744       4.48092293       3.81744720  T      -0.87872078      -1.60492533      -0.62445082
O        1.63819683       2.46451966       1.94004916  T       1.42264167      -0.15804157      -2.30978125
O        3.80135784       2.72148017       4.17371405  T      -0.31764181       0.32513514       0.08805359
O        3.76222079       4.48241997       6.06308071  T      -0.35065909      -0.01087700      -0.43126810
O        1.61607020       2.99049810       5.80777457  T       0.29079893       0.25822839       0.03713866
O        4.95428176       1.35898279       5.85786802  T       0.20697492       0.21426674       0.37246989
O        5.30053376       0.95586854       3.16456445  T       1.37953227       0.26711815       0.30259099
O        6.18584814       3.53262459       3.94098870  T      -0.15865341      -0.41086732      -1.36142922
O        7.20998991       1.63025962       4.87281967  T       0.28936710       0.39135024      -0.14735347
O        9.10055905       2.35230809       6.51342844  T       0.12256979       0.43839630       1.18999958
O        9.67200199       0.65676647       4.54901709  T       0.22268141       0.11658910      -0.56432161
O        1.05485334       9.73207383       2.52571444  T       0.36605910       0.76022978       0.59668022
O        1.07776087       8.07436115       4.67344396  T      -1.38012013       0.76263293      -0.24019589
O        9.87000000       6.98000000       2.02000000  F       0.00000000       0.00000000       0.00000000
O        5.36238731       6.03349929       4.62576437  T      -0.19846586       0.28160124      -0.15177134
O        5.59000000       5.63000000       2.17000000  F       0.00000000       0.00000000       0.00000000
O        7.76809421       5.80247893       3.55130943  T       0.68031103      -0.40006919      -0.28801169
O        5.53024774       8.21830554       2.63177198  T      -0.44660145       0.07367562       1.55014811
O        8.68227955       8.46015064       3.56230687  T       0.31922351       0.20673412      -0.10489415
O        3.45901816       4.11699895      11.56505510  T      -0.60976133      -0.08972486      -0.20246198
O        1.07888522       4.84573144      11.42492718  T      -0.51987403      -0.17127177      -0.02536395
O        1.75637557       0.78675278      10.27241167  T       0.10222140      -1.06009122      -0.34931297
O        2.62728688       3.22173716       9.21922188  T      -0.94553857       0.43915837      -0.49495889
O        3.64728504       1.12436863       8.29458534  T       0.81427876       0.68118140      -0.20612988
O        0.94803949       1.56635481       8.03006614  T       0.59881831      -0.57486389       0.56783022
O        0.46315492       4.18943538       7.81813213  T      -0.01326741       0.67521824       0.18864357
O        9.22860039       1.25003809      11.21154024  T       0.06445991      -0.70804725      -0.27165667
O        6.03660854       2.53901945       7.89325743  T      -0.18616340      -0.29854759       0.42735700
O        5.23134131       4.07269848       9.83977551  T      -0.96713586      -0.18810164      -0.15480382
O        7.46626940       2.48696871       9.99694404  T       0.18476306       0.14726319       0.11177748
O        6.61151354       0.28191757      11.32515295  T      -0.10426316       1.16657961      -0.15969101
O        7.47169176       4.75577685       8.74171428  T       0.53575484      -0.41826549       0.30813028
O        8.06599778       9.82896893       6.64369193  T       0.78332646      -0.86577401      -0.13909320
O        4.10175383       7.04948904       6.82861546  T       0.19614716      -0.54029366       0.11072384
O        4.07949744       9.62148365      11.06867741  T      -0.56821692      -0.43421777      -0.57490572
O        2.97853269       8.27224325       8.89174433  T      -0.66531823      -0.27937235      -0.13115406
O        1.54938026       6.56306756       7.13784535  T       0.24271465      -0.44312931       0.46407226
O        3.18160188       5.67022529       9.13841044  T      -1.00724883       0.05458234      -0.09059772
O        0.26110010       6.23597768       9.55321691  T       1.22625501      -0.27535142      -0.11861816
O        2.25193627       7.32557150      11.18870010  T      -0.79239438      -0.30969187      -0.00505080
O        4.86234145       7.24776506      10.39378282  T      -0.36614557      -0.72378071       0.23155053
O        8.29638391      -0.10202573       9.21951657  T      -1.01801758      -0.96557107       0.24390334
O        7.52905492       7.15148547      11.32407039  T      -0.16801601       0.07660828       0.14985982
O        6.24770603       5.58847938       6.82271390  T       0.10142460       0.46907960       0.02009534
O        5.84517152       9.86725701       7.97856144  T      -0.56982118       0.20295698       0.43977401
O        8.92379387       6.22815481       7.10031882  T      -0.09178096       0.98326492      -0.13700559
O        7.13366190       7.67399532       8.24123830  T      -0.07771798       0.30340982       0.32741934
O        3.55000000       4.18000000       1.53000000  F       0.00000000       0.00000000       0.00000000
O        1.14000000       4.89000000       1.35000000  F       0.00000000       0.00000000       0.00000000
O        9.29000000       1.31000000       1.44000000  F       0.00000000       0.00000000       0.00000000
O        6.84000000       0.20000000       1.30000000  F       0.00000000       0.00000000       0.00000000
O        3.95000000       9.60000000       1.25000000  F       0.00000000       0.00000000       0.00000000
O        2.28000000       7.42000000       1.08000000  F       0.00000000       0.00000000       0.00000000
O        7.52000000       7.21000000       1.37000000  F       0.00000000       0.00000000       0.00000000
Si       2.03170269       3.97340218      12.37129684  T      -0.47135310      -0.85700764      -1.06742987
Si       2.88713531       3.64867861      15.00498985  T      -0.62575316      -0.62442953       0.92283506
Si       0.83806019       1.08691975      11.54381801  T      -0.03438135       0.30017896      -1.54929276
Si       8.38687941       1.01589110      15.70812097  T       0.73741397       1.00653474       0.77200793
Si       5.53344189       2.10908185      14.49523116  T      -1.18428905      -0.41628517       0.77069683
Si       4.73877579       5.75243872      16.13454504  T      -0.33988894      -0.36297692       0.52343408
Si       0.05516746       9.20572370      13.84519491  T       0.52325258      -0.03763554       0.97448430
Si       6.24122792       5.17154254      13.61899385  T       0.81281922      -0.13403413      -0.36537286
Si       5.31049297       9.87917896      12.19636935  T      -0.71186987      -0.60403267       0.16878126
Si       8.46660037       7.01582839      12.66271258  T       1.60266485       0.35645852       0.87498285
Si       3.12701589       4.25485448      20.20246003  T      -1.89655036       0.17998219      -1.25705203
Si       2.12458535       1.53511113      19.05962086  T       0.93182063      -0.14716039      -0.11641984
Si       0.49520916       2.76960665      16.94158959  T      -0.85680028       0.32606532       1.62735418
Si       4.97024998       1.55893026      17.61543220  T      -0.13900266      -0.32569638       0.25570104
Si       6.02093822       3.71222740      19.54431060  T       2.32103271      -0.91496599      -1.50890984
Si       7.69304878       1.22298651      20.62903145  T       0.37732078      -0.14483976       0.78617992
Si       2.56667433       8.80997733      20.44828067  T      -0.28858102       0.31864739      -0.13978270
Si       2.86875527       6.74730374      18.15160806  T       0.82702464      -0.04299026       0.67335432
Si       1.10587083       6.13468794      21.26889111  T      -0.21425665      -0.11336644      -1.61752297
Si       0.13059740       5.59585072      18.33293747  T      -1.10125373       1.33406397       0.77559736
Si       6.05123920       9.30972955      22.43681807  T      -1.07756193      -0.93021296       0.29358827
Si       7.06954004       6.24909350      18.19641512  T       0.41095568       0.53780986       0.13103198
Si       7.17553908       9.48323995      18.12589194  T      -0.27938677       0.63645358       0.67412682
Si       2.10000000       3.98000000       2.32000000  F       0.00000000       0.00000000       0.00000000
Si       2.84721145       3.71090001       5.00679112  T      -0.10280448       0.26351827       0.56200613
Si       0.89000000       1.15000000       1.77000000  F       0.00000000       0.00000000       0.00000000
Si       8.45060424       1.03858114       5.64826246  T       0.93730515       0.65923973       0.69329246
Si       5.50803327       2.02760406       4.44309002  T      -0.61083529       0.56341104       0.15389862
Si       4.81430476       5.82130876       6.12445989  T       0.19723626      -0.75220914      -1.27817201
Si       0.17691930       9.21663171       3.93163336  T       2.41041236      -0.84784714      -0.92853633
Si       6.22547842       5.09466576       3.62966567  T       0.76139375       0.29037861       0.21811986
Si       5.42000000       9.77000000       2.06000000  F       0.00000000       0.00000000       0.00000000
Si       8.42097997       7.05417740       2.75322648  T      -0.39355905       1.40131495       0.27122206
Si       3.62337560       4.29045135       9.92207278  T      -0.20048893      -0.17349050       1.40122523
Si       2.27335677       1.63913457       8.94041121  T       1.08828007       0.39871328      -0.04469060
Si       0.54739742       2.77353618       6.98813664  T       0.21262418      -0.42336274      -0.67709275
Si       5.13225930       1.22331969       7.48576009  T       0.39332406       0.57151973       0.11647018
Si       6.55064113       3.47307256       9.11945118  T      -0.70162245       0.60103306       0.26532108
Si       7.84858639       0.99254550      10.45805201  T      -0.26683200      -0.28103961      -0.25468297
Si       3.54178592       8.19433280      10.44896253  T      -0.12392630      -0.07651437       1.20011609
Si       2.93785136       6.87486567       8.02508466  T      -0.68947565      -0.06667462      -0.79574250
Si       0.94922977       6.39092024      11.00417801  T       1.10841358      -0.07705856       0.89138350
Si       0.30431352       5.79411366       7.95648356  T       0.11461976       0.15374363      -0.99092049
Si       5.90632449       7.05306767      11.69739281  T      -0.04248773       0.26767118       1.39411201
Si       7.45572724       6.11218949       7.77045406  T       0.74472649       0.28806560      -0.31899167
Si       7.35719302       9.29366123       8.03197987  T       0.81536905      -0.31345735       0.04701963
Si       7.93000000       1.02000000       0.50000000  F       0.00000000       0.00000000       0.00000000
Si       0.91000000       6.44000000       0.98000000  F       0.00000000       0.00000000       0.00000000
Si       5.91000000       7.08000000       1.49000000  F       0.00000000       0.00000000       0.00000000
C        4.99731101       4.98681122      21.51553084  T       0.99957032      -0.50298819     -11.24393902
F        5.79631159       6.04542708      21.45130082  T      -0.19139352      -0.28630548     -21.53721458
F        5.89742490       3.95316333      21.64014716  T       4.71007116       0.69855046     -13.51688087
153
Lattice="10.0 0.0 0.0 0.0 10.0 0.0 0.0 0.0 43.74" Properties=species:S:1:pos:R:3:move_mask:L:1:momenta:R:3 etch=trj_CF2_30eV_case1 idx=0 index=0 source=trj_CF2_30eV_case1/0000/OUTCAR converged=T time_fs=50.0 pbc="T T T"
O        2.14274477       4.58063639      13.88150496  T      -0.53081569      -0.61646736      -0.02278818
O        1.39850873       2.47270947      12.23507690  T      -0.58762777      -0.19266323      -0.48668336
O        3.79240779       2.62973972      14.25303245  T       0.20195864       0.97025251      -0.48643505
O        3.74810321       4.50071116      16.14856520  T       0.31124989      -0.18513836       0.10272579
O        1.69298933       2.85504958      15.88994523  T      -0.88070654      -0.13993663      -0.12616961
O        5.07919111       1.73315191      16.08389453  T       0.77531173       0.11730786      -0.24710524
O        5.07203622       0.98523446      13.31808145  T       1.06289895      -0.20085615      -0.03531751
O        6.14344968       3.60275584      14.01447899  T       0.07990861       0.10605738      -0.44405845
O        7.18972459       1.52396532      14.75650815  T       0.17048818       0.25807246      -0.17433982
O        8.96545528       2.39454583      16.47332318  T       0.89578251       0.59744010       0.27680998
O        9.69100086       0.46183191      14.85457586  T       0.65988264      -0.32429515       0.01130445
O        0.88030161       9.81449947      12.58381731  T      -0.30988876       0.46671794      -0.33671070
O        1.04331335       8.12185599      14.72111563  T      -1.25654999       0.04212593       0.00312710
O       10.00904768       6.83046469      12.28359291  T       0.01811905      -0.84951771      -0.74929475
O        5.33866724       5.99888038      14.68439785  T      -0.55138185      -0.74814569       0.31194441
O        5.66779122       5.48545404      12.14436759  T       0.21240941       0.52001961       0.84508094
O        7.74555728       5.86973669      13.56346415  T       0.53128172      -0.12163794      -0.29066836
O        5.59684315       8.34579743      12.83016836  T       0.07604366       0.71574053       0.38935164
O        8.62629771       8.42394588      13.55211879  T       0.17362291       0.94847084      -0.74190494
O        2.38827281       5.10012400      21.36959164  T      -0.79202778       0.02795323      -0.86105434
O        0.23708284       6.05582919      22.63111282  T      -0.45536066      -0.92613604       0.31654991
O        1.92243798       0.27422887      20.08100398  T       0.38333842       0.15552941      -0.16586026
O        2.44831995       2.89776408      19.98355476  T       0.86821991      -0.41569603       0.09166414
O        3.45498695       1.33875409      18.15344384  T      -0.84233164       0.48654619      -0.20458406
O        0.82838286       1.61771748      18.10863352  T       0.80224994       0.21504490       0.58308854
O        0.35955653       4.13137616      17.81121611  T      -0.10482837       0.41532151      -0.26231090
O        9.07760796       1.43929726      21.44314133  T       0.20532698       0.58522155       0.06276764
O        5.53837169       3.00278500      18.19475157  T       0.74925557      -0.49522241       0.02252129
O        4.61981960       3.90801968      20.49184124  T      -4.12532174       0.17388979      -6.40561068
O        7.07867940       2.73985285      20.33831525  T       0.23707482      -0.69559370      -1.15915564
O        6.53094361       0.52196408      21.51233193  T      -0.26501023      -0.03398069       0.12625391
O        6.57385758       5.20785715      19.40143992  T      -0.08983028       0.06978173       0.12331853
O        7.95890716       9.85309697      16.73099490  T       0.01628669      -0.51364234       0.28519917
O        3.79001485       6.90266214      16.84891135  T      -0.54220346      -0.50543324       0.23926593
O        3.84836506       9.38668102      21.32968580  T       0.36683926       0.34587623       0.02628635
O        3.20893948       8.01552429      19.14773015  T      -1.17851708      -0.10742104       0.18461519
O        1.25879947       6.59485740      17.83375322  T      -0.13107084       0.11710636       0.18536497
O        3.23913180       5.30790128      18.97058031  T       0.33237351       0.82697544       0.08797668
O        0.17964041       5.67538297      20.03271279  T       0.42418197       1.00983126      -0.05037572
O        1.56818079       7.71913750      21.20247881  T       1.03484704      -0.11458357      -0.12259977
O        4.67274521       8.36174437      22.05111418  T       0.87387673       1.07461182       0.48222113
O        8.03721180       0.23556051      19.34405092  T      -0.74633893       0.45397488       0.01178527
O        6.79228048       8.73715731      23.63281571  T      -1.04416375      -0.35272991      -0.68511135
O        6.16018672       5.77171720      16.97044056  T      -0.48482752      -0.83968741       0.70105335
O        5.72064056       0.21879001      18.18668934  T       0.12709041       0.35828966      -0.58253962
O        8.64677804       6.10086125      17.89805536  T      -0.24509677       0.15475662      -0.34171155
O        6.89155853       7.90287242      18.43609791  T      -0.47919509       0.03737353       0.39763112
O        1.99116977       4.47127412       3.81379507  T      -0.92187526      -1.53689119      -0.56117812
O        1.64711655       2.46360694       1.92594896  T       1.48194325      -0.14094529      -2.28378635
O        3.79968934       2.72332325       4.17418495  T      -0.22499682       0.27447036       0.06523163
O        3.76047539       4.48309309       6.06080288  T      -0.21685298       0.23072052      -0.30986209
O        1.61806317       2.99202744       5.80793756  T       0.35700901       0.23920440       0.01697158
O        4.95546559       1.36022891       5.86053788  T       0.17874899       0.19240381       0.49473847
O        5.30909878       0.95740999       3.16651771  T       1.40937837       0.23404211       0.33241830
O        6.18482947       3.53028636       3.93253712  T      -0.17304622      -0.34902409      -1.39116487
O        7.21139440       1.63257589       4.87169516  T       0.16979733       0.36281624      -0.21702731
O        9.10080499       2.35457905       6.52034059  T      -0.04426382       0.30032645       1.06039141
O        9.67338084       0.65725343       4.54571466  T       0.22619766       0.04195189      -0.51078840
O        1.05712674       9.73700020       2.52937102  T       0.37559704       0.84412277       0.59259801
O        1.06917208       8.07933873       4.67187118  T      -1.41421244       0.85504944      -0.26981422
O        9.87000000       6.98000000       2.02000000  F       0.00000000       0.00000000       0.00000000
O        5.36098869       6.03530522       4.62462937  T      -0.25578346       0.30589933      -0.21979848
O        5.59000000       5.63000000       2.17000000  F       0.00000000       0.00000000       0.00000000
O        7.77227307       5.79989934       3.54963647  T       0.68028884      -0.43943430      -0.25704760
O        5.52764663       8.21872262       2.64110439  T      -0.39978279       0.06135964       1.48698419
O        8.68428484       8.46140211       3.56167478  T       0.33364594       0.20169566      -0.10114369
O        3.45521498       4.11650903      11.56365627  T      -0.62792675      -0.07012141      -0.25164683
O        1.07565177       4.84463764      11.42468366  T      -0.53256410      -0.18618275      -0.05338213
O        1.75725264       0.78030377      10.26992594  T       0.18412985      -1.03953145      -0.46074154
O        2.62148310       3.22427809       9.21627617  T      -0.94325571       0.38962928      -0.46299521
O        3.65276164       1.12843812       8.29296428  T       0.96698348       0.64494478      -0.32047760
O        0.95180051       1.56294387       8.03330117  T       0.62448676      -0.53408225       0.48281729
O        0.46302111       4.19357198       7.81930484  T      -0.03016802       0.66732930       0.19099025
O        9.22939248       1.24566725      11.21010758  T       0.19212233      -0.71538164      -0.19612467
O        6.03530534       2.53708612       7.89573110  T      -0.23701556      -0.32883368       0.37913669
O        5.22532227       4.07149687       9.83867634  T      -0.99044173      -0.20357827      -0.20334765
O        7.46730393       2.48789261       9.99771937  T       0.15153272       0.15419203       0.14001972
O        6.61137444       0.28934405      11.32381167  T       0.05495879       1.25040341      -0.27482939
O        7.47514834       4.75353071       8.74369091  T       0.58949698      -0.31177376       0.33436941
O        8.07089777       9.82335238       6.64287106  T       0.81294236      -0.96163030      -0.12914766
O        4.10258350       7.04627598       6.82967165  T       0.07474351      -0.50737509       0.23208081
O        4.07588760       9.61874995      11.06538168  T      -0.60551866      -0.45401105      -0.49623499
O        2.97447903       8.27046909       8.89094167  T      -0.65411049      -0.29825075      -0.12795540
O        1.55094694       6.56032789       7.14126487  T       0.26663369      -0.44873727       0.64687037
O        3.17544197       5.67057824       9.13768967  T      -0.99806618       0.05827985      -0.14253621
O        0.26852567       6.23452741       9.55203710  T       1.19243303      -0.19672305      -0.26522788
O        2.24754142       7.32409672      11.18855218  T      -0.63511261      -0.16808066      -0.04219093
O        4.86059474       7.24322783      10.39563855  T      -0.20326537      -0.75342295       0.37424991
O        8.28979659      -0.10763395       9.22136686  T      -1.12548986      -0.85974485       0.36043996
O        7.52779456       7.15206760      11.32501247  T      -0.24150819       0.11310677       0.15920498
O        6.24830615       5.59129068       6.82292379  T       0.09392771       0.44600106       0.04775599
O        5.84163698       9.86844318       7.98135450  T      -0.57759839       0.18193637       0.46963016
O        8.92361225       6.23410812       7.09971495  T       0.03354003       0.95558801      -0.06020922
O        7.13328861       7.67570471       8.24318472  T      -0.04378310       0.25129634       0.30626994
O        3.55000000       4.18000000       1.53000000  F       0.00000000       0.00000000       0.00000000
O        1.14000000       4.89000000       1.35000000  F       0.00000000       0.00000000       0.00000000
O        9.29000000       1.31000000       1.44000000  F       0.00000000       0.00000000       0.00000000
O        6.84000000       0.20000000       1.30000000  F       0.00000000       0.00000000       0.00000000
O        3.95000000       9.60000000       1.25000000  F       0.00000000       0.00000000       0.00000000
O        2.28000000       7.42000000       1.08000000  F       0.00000000       0.00000000       0.00000000
O        7.52000000       7.21000000       1.37000000  F       0.00000000       0.00000000       0.00000000
Si       2.03012723       3.97025824      12.36741408  T      -0.43124617      -0.93948259      -1.14968184
Si       2.88478621       3.64645229      15.00851034  T      -0.71849001      -0.64698576       1.08901807
Si       0.83776630       1.08810709      11.53864032  T      -0.13367033       0.37657305      -1.41070920
Si       8.38947984       1.01969449      15.71057394  T       0.74886662       1.16591289       0.62977337
Si       5.52924613       2.10752508      14.49787361  T      -1.21280422      -0.47135394       0.73738707
Si       4.73771356       5.75135640      16.13651753  T      -0.26700787      -0.25596750       0.60424434
Si       0.05697910       9.20556829      13.84880750  T       0.51303139      -0.04923974       1.08669950
Si       6.24413288       5.17085742      13.61785582  T       0.84806943      -0.25750103      -0.28189734
Si       5.30802749       9.87695091      12.19695239  T      -0.69559861      -0.66756450       0.16182499
Si       8.47220432       7.01725182      12.66590945  T       1.59860039       0.45772156       0.95006185
Si       3.11974117       4.25608745      20.19781799  T      -2.28012304       0.53076695      -1.40037287
Si       2.12795258       1.53457671      19.05927216  T       0.99161348      -0.15758507      -0.08091159
Si       0.49201983       2.77057922      16.94739850  T      -0.96232993       0.23031793       1.69306113
Si       4.96970369       1.55768923      17.61654258  T      -0.17429503      -0.38247330       0.37677450
Si       6.02948667       3.70870508      19.53891738  T       2.56834369      -1.10015002      -1.57603267
Si       7.69452936       1.22258703      20.63158377  T       0.46870727      -0.08412095       0.67351662
Si       2.56557908       8.81096387      20.44768974  T      -0.33600941       0.24629789      -0.19666897
Si       2.87161744       6.74703285      18.15415827  T       0.80546818      -0.11202680       0.78387384
Si       1.10507557       6.13433766      21.26338602  T      -0.24083321      -0.08410664      -1.52299838
Si       0.12651060       5.60058408      18.33602979  T      -1.23280395       1.37008297       0.98974716
Si       6.04741816       9.30629145      22.43786778  T      -1.10645213      -1.02985024       0.30185470
Si       7.07098295       6.25116241      18.19686121  T       0.41113920       0.64433868       0.12327388
Si       7.17462357       9.48559107      18.12831779  T      -0.24339050       0.70660824       0.71199596
Si       2.10000000       3.98000000       2.32000000  F       0.00000000       0.00000000       0.00000000
Si       2.84676448       3.71149295       5.00874820  T      -0.15359596       0.07502020       0.55447488
Si       0.89000000       1.15000000       1.77000000  F       0.00000000       0.00000000       0.00000000
Si       8.45400738       1.04120692       5.65070358  T       1.00733315       0.83989407       0.70091741
Si       5.50591890       2.02954853       4.44351617  T      -0.59766966       0.54795408       0.09027883
Si       4.81502540       5.81837409       6.11986708  T       0.21398126      -0.92328408      -1.34403633
Si       0.18523396       9.21349739       3.92838780  T       2.33922702      -0.93962629      -0.92621382
Si       6.22820279       5.09582320       3.63035670  T       0.79637242       0.37059152       0.17626630
Si       5.42000000       9.77000000       2.06000000  F       0.00000000       0.00000000       0.00000000
Si       8.41969547       7.05922496       2.75419859  T      -0.33998954       1.48303276       0.28457820
Si       3.62270749       4.28978747       9.92711135  T      -0.18574524      -0.20415823       1.47449118
Si       2.27722690       1.64055443       8.94044451  T       1.12512399       0.41178752       0.06403354
Si       0.54819898       2.77220302       6.98594749  T       0.24832126      -0.33756951      -0.56981669
Si       5.13336747       1.22547670       7.48611423  T       0.24095024       0.66003156       0.08662506
Si       6.54814346       3.47523923       9.12033070  T      -0.72529908       0.63608582       0.23818099
Si       7.84759991       0.99127356      10.45711270  T      -0.29663219      -0.44481481      -0.28263460
Si       3.54108905       8.19401607      10.45313360  T      -0.27635680      -0.10771295       1.18019194
Si       2.93544043       6.87466402       8.02215230  T      -0.68753010      -0.04872253      -0.87868756
Si       0.95303704       6.39058710      11.00751775  T       1.06538364      -0.11599237       1.01330151
Si       0.30466954       5.79465322       7.95285283  T       0.08897309       0.15630064      -1.08201412
Si       5.90604545       7.05419524      11.70213120  T      -0.11626765       0.37765899       1.31368017
Si       7.45819152       6.11316834       7.76941481  T       0.66282007       0.27173749      -0.27356012
Si       7.36011585       9.29246946       8.03208556  T       0.85085702      -0.36712017       0.01168494
Si       7.93000000       1.02000000       0.50000000  F       0.00000000       0.00000000       0.00000000
Si       0.91000000       6.44000000       0.98000000  F       0.00000000       0.00000000       0.00000000
Si       5.91000000       7.08000000       1.49000000  F       0.00000000       0.00000000       0.00000000
C        5.00607182       4.98227340      21.42507289  T       1.14167121      -0.60584346     -10.86982274
F        5.79511154       6.04414887      21.33975369  T      -0.27659261      -0.20374900     -21.60757088
F        5.92375504       3.95717671      21.57287660  T       5.46404849       0.85951005     -12.51735947
