8
Lattice="5.4702 0.0 0.0 0.0 5.4702 0.0 0.0 0.0 5.4702" Properties=species:S:1:pos:R:3:momenta:R:3 time_fs=0.0 temperature_K=300.0000000000001 pbc="T T T"
Si       0.00000000       0.00000000       0.00000000       0.02002556      -0.15248147       0.86102025
Si       1.36755000       1.36755000       1.36755000      -0.17891388       0.97795914       1.04442787
Si       0.00000000       2.73510000       2.73510000      -0.21861087       1.67179471       0.86712523
Si       1.36755000       4.10265000       4.10265000      -1.15372342      -0.03832433      -0.88234083
Si       2.73510000       0.00000000       2.73510000       0.67374100      -0.03073151      -0.78440535
Si       4.10265000       1.36755000       4.10265000       0.75030077       0.31245433      -0.20338906
Si       2.73510000       2.73510000       0.00000000       1.20699627      -1.57042424      -0.13984422
Si       4.10265000       4.10265000       1.36755000      -1.09981542      -1.17024663      -0.76259388
8
Lattice="5.4702 0.0 0.0 0.0 5.4702 0.0 0.0 0.0 5.4702" Properties=species:S:1:pos:R:3:momenta:R:3 time_fs=2.5 temperature_K=294.76183129577834 pbc="T T T"
Si       0.00017543      -0.00132767       0.00751972       0.02014865      -0.15050656       0.85786430
Si       1.36598637       1.37608623       1.37667076      -0.17863413       0.97269445       1.04033936
Si      -0.00192234       2.74968422       2.74265176      -0.22258693       1.65975981       0.85628374
Si       1.35751897       4.10232830       4.09497791      -1.13344894      -0.03337711      -0.86703123
Si       2.74097215      -0.00026795       2.72826060       0.66701145      -0.03045964      -0.77755192
Si       4.10921226       1.37025588       4.10087012       0.75097870       0.30311922      -0.20394704
Si       2.74559822       2.72139837      -0.00124338       1.18724597      -1.55991083      -0.14711196
Si       4.09305894       4.09244262       1.36089252      -1.09071477      -1.16131933      -0.75884525
8
Lattice="5.4702 0.0 0.0 0.0 5.4702 0.0 0.0 0.0 5.4702" Properties=species:S:1:pos:R:3:momenta:R:3 time_fs=5.0 temperature_K=279.5253110848613 pbc="T T T"
Si       0.00035330      -0.00262190       0.01498387       0.02061628      -0.14493079       0.84828779
Si       1.36442826       1.38453113       1.38571975      -0.17760169       0.95713886       1.02798968
Si      -0.00391834       2.76405510       2.75001094      -0.23578957       1.62278284       0.82285428
Si       1.34784082       4.10210020       4.08757300      -1.07320010      -0.01634949      -0.82130691
Si       2.74672716      -0.00053105       2.72154022       0.64701710      -0.02961256      -0.75726543
Si       4.11578713       1.37279906       4.09907961       0.75322976       0.27531883      -0.20588899
Si       2.75575415       2.70787549      -0.00260894       1.12902125      -1.52997914      -0.16736013
Si       4.08362752       4.08239197       1.35430155      -1.06329302      -1.13436856      -0.74731029
8
Lattice="5.4702 0.0 0.0 0.0 5.4702 0.0 0.0 0.0 5.4702" Properties=species:S:1:pos:R:3:momenta:R:3 time_fs=7.5 temperature_K=255.727533359565 pbc="T T T"
Si       0.00053761      -0.00385361       0.02233601       0.02168140      -0.13630964       0.83226330
Si       1.36288327       1.39279653       1.39462429      -0.17561066       0.93171754       1.00728640
Si      -0.00607586       2.77799034       2.75697590      -0.25974647       1.56005016       0.76607409
Si       1.33885914       4.10208389       4.08069839      -0.97450364       0.01546822      -0.74594669
Si       2.75225133      -0.00078410       2.71505393       0.61435200      -0.02815595      -0.72413274
Si       4.12238899       1.37502065       4.09726480       0.75713867       0.22971408      -0.20955899
Si       2.76524033       2.69469051      -0.00419969       1.03452753      -1.48304497      -0.19819064
Si       4.07451518       4.07265578       1.34784637      -1.01783884      -1.08943944      -0.72779474
8
Lattice="5.4702 0.0 0.0 0.0 5.4702 0.0 0.0 0.0 5.4702" Properties=species:S:1:pos:R:3:momenta:R:3 time_fs=10.0 temperature_K=225.71747933550358 pbc="T T T"
Si       0.00073521      -0.00499868       0.02952072       0.02373385      -0.12521209       0.81005875
Si       1.36136008       1.40079830       1.40331120      -0.17262220       0.89694125       0.97822717
Si      -0.00849300       2.79126493       2.76334331      -0.29521775       1.47182514       0.68635938
Si       1.33089954       4.10241669       4.07460653      -0.84000989       0.06365991      -0.64266398
Si       2.75743806      -0.00102156       2.70891068       0.57006930      -0.02603302      -0.67897022
Si       4.12903155       1.37676916       4.09540946       0.76246210       0.16732552      -0.21518402
Si       2.77375256       2.68198199      -0.00609783       0.90689103      -1.42139197      -0.23727043
Si       4.06587600       4.06338919       1.34159593      -0.95530644      -1.02711474      -0.70055665
8
Lattice="5.4702 0.0 0.0 0.0 5.4702 0.0 0.0 0.0 5.4702" Properties=species:S:1:pos:R:3:momenta:R:3 time_fs=12.5 temperature_K=192.5363854883911 pbc="T T T"
Si       0.00095669      -0.00603768       0.03648585       0.02722902      -0.11212088       0.78213981
Si       1.35986716       1.40845731       1.41170813      -0.16870615       0.85343838       0.94100650
Si      -0.01126957       2.80366152       2.76891898      -0.34174821       1.35961145       0.58540239
Si       1.32425884       4.10324316       4.06953038      -0.67364244       0.12822771      -0.51421735
Si       2.76219184      -0.00123730       2.70321118       0.51559779      -0.02317721      -0.62284437
Si       4.13572476       1.37790384       4.09349624       0.76857671       0.08962071      -0.22278126
Si       2.78101798       2.66986933      -0.00836608       0.75013542      -1.34710232      -0.28248171
Si       4.05785230       4.05473982       1.33561532      -0.87744214      -0.94849784      -0.66622400
8
Lattice="5.4702 0.0 0.0 0.0 5.4702 0.0 0.0 0.0 5.4702" Properties=species:S:1:pos:R:3:momenta:R:3 time_fs=15.0 temperature_K=159.5636108542733 pbc="T T T"
Si       0.00121665      -0.00695479       0.04318417       0.03260570      -0.09737924       0.74915808
Si       1.35841202       1.41570026       1.41974511      -0.16401391       0.80189506       0.89596937
Si      -0.01449488       2.81498185       2.77352962      -0.39736410       1.22629409       0.46631798
Si       1.31919400       4.10469990       4.06567367      -0.48061475       0.20731874      -0.36456009
Si       2.76643069      -0.00142471       2.69804577       0.45260544      -0.01954898      -0.55705817
Si       4.14247141       1.37829898       4.09150869       0.77446994      -0.00143858      -0.23211734
Si       2.78680231       2.65845497      -0.01104946       0.56903300      -1.26195032      -0.33189601
Si       4.05056781       4.04684354       1.32996242      -0.78672132      -0.85519078      -0.62581382
8
Lattice="5.4702 0.0 0.0 0.0 5.4702 0.0 0.0 0.0 5.4702" Properties=species:S:1:pos:R:3:momenta:R:3 time_fs=17.5 temperature_K=130.0685500575148 pbc="T T T"
Si       0.00153317      -0.00773658       0.04957461       0.04022636      -0.08119737       0.71185382
Si       1.35700057       1.42245976       1.42735577      -0.15875183       0.74297415       0.84358547
Si      -0.01823417       2.82505909       2.77703567      -0.45854602       1.07616162       0.33369479
Si       1.31591057       4.10689905       4.06320006      -0.26745560       0.29722142      -0.19889794
Si       2.77008805      -0.00157688       2.69349254       0.38293166      -0.01510612      -0.48310218
Si       4.14926380       1.37784809       4.08943374       0.77876111      -0.10341549      -0.24264385
Si       2.79091593       2.64782743      -0.01417699       0.36901468      -1.16735953      -0.38378314
Si       4.04412208       4.03982004       1.32468461      -0.68618036      -0.74927868      -0.58070696
8
Lattice="5.4702 0.0 0.0 0.0 5.4702 0.0 0.0 0.0 5.4702" Properties=species:S:1:pos:R:3:momenta:R:3 time_fs=20.0 temperature_K=106.73222303568714 pbc="T T T"
Si       0.00192714      -0.00837098       0.05562277       0.05035853      -0.06367598       0.67101042
Si       1.35563682       1.42867412       1.43447834      -0.15314485       0.67731563       0.78444317
Si      -0.02251576       2.83376934       2.77934349      -0.52043931       0.91468161       0.19338484
Si       1.31455189       4.10991326       4.06222281      -0.04181142       0.39270647      -0.02348407
Si       2.77311391      -0.00168650       2.68961584       0.30851479      -0.00981488      -0.40261332
Si       4.15608079       1.37646791       4.08726447       0.77977143      -0.21345550      -0.25351691
Si       2.79321912       2.63806396      -0.01776351       0.15603044      -1.06449998      -0.43663396
Si       4.03858610       4.03376889       1.31981579      -0.57927960      -0.63325737      -0.53259016
8
Lattice="5.4702 0.0 0.0 0.0 5.4702 0.0 0.0 0.0 5.4702" Properties=species:S:1:pos:R:3:momenta:R:3 time_fs=22.5 temperature_K=91.24205721193117 pbc="T T T"
Si       0.00242132      -0.00884645       0.06130119       0.06317121      -0.04484704       0.62742531
Si       1.35432276       1.43428720       1.44105669      -0.14742878       0.60555513       0.71923629
Si      -0.02732135       2.84104004       2.78041455      -0.57733430       0.74802449       0.05203486
Si       1.31519103       4.11376490       4.06279747       0.18798598       0.48761867       0.15482136
Si       2.77547546      -0.00174609       2.68646526       0.23133736      -0.00365990      -0.31733618
Si       4.16288561       1.37410163       4.08500237       0.77563543      -0.32837306      -0.26367504
Si       2.79362579       2.62923231      -0.02181165      -0.06363666      -0.95439541      -0.48915440
Si       4.03399938       4.02876646       1.31537412      -0.46973024      -0.50992288      -0.48335220
8
Lattice="5.4702 0.0 0.0 0.0 5.4702 0.0 0.0 0.0 5.4702" Properties=species:S:1:pos:R:3:momenta:R:3 time_fs=25.0 temperature_K=84.07374763006891 pbc="T T T"
Si       0.00303956      -0.00915162       0.06658933       0.07873901      -0.02472440       0.58187447
Si       1.35305831       1.43924851       1.44704115      -0.14184095       0.52835691       0.64874477
Si      -0.03258136       2.84685336       2.78026962      -0.62334932       0.58241150      -0.08355753
Si       1.31782724       4.11842096       4.06491900       0.41350075       0.57558293       0.32913245
Si       2.77715722      -0.00174812       2.68407478       0.15337438       0.00334479      -0.22908150
Si       4.16962494       1.37072138       4.08265874       0.76445788      -0.44475832      -0.27195126
Si       2.79210551       2.62139167      -0.02631350      -0.28358702      -0.83798953      -0.54022381
Si       4.03036859       4.02486386       1.31136088      -0.36129473      -0.38222388      -0.43493759
8
Lattice="5.4702 0.0 0.0 0.0 5.4702 0.0 0.0 0.0 5.4702" Properties=species:S:1:pos:R:3:momenta:R:3 time_fs=27.5 temperature_K=84.5306195294876 pbc="T T T"
Si       0.00380596      -0.00927533       0.07147321       0.09705157      -0.00335655       0.53507597
Si       1.35184133       1.44351362       1.45238915      -0.13661081       0.44644681       0.57381158
Si      -0.03817673       2.85124367       2.77898711      -0.65318531       0.42345169      -0.20712301
Si       1.32238790       4.12379446       4.06852424       0.62683566       0.65075440       0.49315224
Si       2.77816077      -0.00168538       2.68246241       0.07654672       0.01114331      -0.13968374
Si       4.17622950       1.36632971       4.08025515       0.74452689      -0.55908334      -0.27719266
Si       2.78868327       2.61459294      -0.03125197      -0.49758264      -0.71625275      -0.58885853
Si       4.02766801       4.02208631       1.30776070      -0.25758207      -0.25310358      -0.38918185
8
Lattice="5.4702 0.0 0.0 0.0 5.4702 0.0 0.0 0.0 5.4702" Properties=species:S:1:pos:R:3:momenta:R:3 time_fs=30.0 temperature_K=91.00881451587682 pbc="T T T"
Si       0.00474419      -0.00920718       0.07594472       0.11802294       0.01912712       0.48765534
Si       1.35066774       1.44704480       1.45706569      -0.13194956       0.36063861       0.49531921
Si      -0.04394710       2.85428973       2.77669585      -0.66278230       0.27561724      -0.31348926
Si       1.32873569       4.12975187       4.07349943       0.82117306       0.70842856       0.64166372
Si       2.77850411      -0.00155133       2.68163018       0.00267544       0.01962699      -0.05096054
Si       4.18261632       1.36096005       4.07782266       0.71443110      -0.66783622      -0.27840260
Si       2.78343730       2.60887819      -0.03660173      -0.69971734      -0.59025215      -0.63413657
Si       4.02584174       4.02043387       1.30454322      -0.16185334      -0.12535016      -0.34764930
8
Lattice="5.4702 0.0 0.0 0.0 5.4702 0.0 0.0 0.0 5.4702" Properties=species:S:1:pos:R:3:momenta:R:3 time_fs=32.5 temperature_K=101.39209369912726 pbc="T T T"
Si       0.00587688      -0.00893840       0.08000074       0.14149626       0.04247835       0.44011692
Si       1.34953176       1.44981192       1.46104357      -0.12803747       0.27185564       0.41416702
Si      -0.04970343       2.85610329       2.77356364      -0.64969085       0.14194466      -0.39895338
Si       1.33667961       4.13612507       4.07969095       0.99108692       0.74544257       0.77080267
Si       2.77822055      -0.00134070       2.68156441      -0.06655745       0.02862638       0.03532549
Si       4.18869176       1.35467602       4.07539995       0.67316356      -0.76764606      -0.27485462
Si       2.77649534       2.60427945      -0.04232935      -0.88460802      -0.46122161      -0.67510709
Si       4.02480752       4.01988335       1.30166610      -0.07685295      -0.00147993      -0.31149702
8
Lattice="5.4702 0.0 0.0 0.0 5.4702 0.0 0.0 0.0 5.4702" Properties=species:S:1:pos:R:3:momenta:R:3 time_fs=35.0 temperature_K=113.4577299290572 pbc="T T T"
Si       0.00722497      -0.00846298       0.08364194       0.16724241       0.06630848       0.39282366
Si       1.34842622       1.45179345       1.46430346      -0.12500550       0.18114438       0.33124675
Si      -0.05524284       2.85681614       2.76978375      -0.61318734       0.02400637      -0.46139686
Si       1.34598780       4.14272564       4.08691746       1.13265139       0.76031999       0.87806786
Si       2.77735739      -0.00104994       2.68223642      -0.12965424       0.03790606       0.11750542
Si       4.19435547       1.34756969       4.07303059       0.62021197      -0.85538813      -0.26616019
Si       2.76802919       2.60081699      -0.04839261      -1.04757578      -0.33063418      -0.71070530
Si       4.02446180       4.02039102       1.29907899      -0.00468291       0.11633703      -0.28138133
8
Lattice="5.4702 0.0 0.0 0.0 5.4702 0.0 0.0 0.0 5.4702" Properties=species:S:1:pos:R:3:momenta:R:3 time_fs=37.5 temperature_K=125.19143179624587 pbc="T T T"
Si       0.00880703      -0.00777898       0.08687151       0.19495249       0.09008198       0.34598762
Si       1.34734313       1.45297756       1.46683372      -0.12290189       0.08968266       0.24742773
Si      -0.06036337       2.85656806       2.76556129      -0.55417014      -0.07789763      -0.50019258
Si       1.35640004       4.14935931       4.09498117       1.24325409       0.75316112       0.96215910
Si       2.77597388      -0.00067783       2.68360350      -0.18537999       0.04717869       0.19405119
Si       4.19950513       1.33975905       4.07075998       0.55564535      -0.92828254      -0.25229739
Si       2.75824836       2.59849704      -0.05473937      -1.18467944      -0.20022518      -0.73971965
Si       4.02468579       4.02189578       1.29672819       0.05327952       0.22630091      -0.25741603
8
Lattice="5.4702 0.0 0.0 0.0 5.4702 0.0 0.0 0.0 5.4702" Properties=species:S:1:pos:R:3:momenta:R:3 time_fs=40.0 temperature_K=134.97280615672528 pbc="T T T"
Si       0.01063857      -0.00688971       0.08969385       0.22422485       0.11312780       0.29967399
Si       1.34627447       1.45336329       1.46863014      -0.12169192      -0.00123223       0.16353535
Si      -0.06487699       2.85549705       2.76110118      -0.47486275      -0.16440595      -0.51596461
Si       1.36763807       4.15583880       4.10367725       1.32134108       0.72542224       1.02272368
Si       2.77413894      -0.00022593       2.68561017      -0.23276425       0.05608124       0.26355261
Si       4.20404144       1.33138467       4.06863221       0.48007161      -0.98394394      -0.23356315
Si       2.74739354       2.59730945      -0.06130616      -1.29273050      -0.07201164      -0.76077439
Si       4.02535195       4.02432238       1.29456135       0.09641187       0.32696249      -0.23918348
8
Lattice="5.4702 0.0 0.0 0.0 5.4702 0.0 0.0 0.0 5.4702" Properties=species:S:1:pos:R:3:momenta:R:3 time_fs=42.5 temperature_K=141.6462432164976 pbc="T T T"
Si       0.01273110      -0.00580486       0.09211332       0.25454723       0.13466888       0.25381302
Si       1.34521285       1.45296143       1.46969548      -0.12126182      -0.09021116       0.08033696
Si      -0.06861956       2.85373273       2.75659847      -0.37844474      -0.23673113      -0.51028710
Si       1.37941379       4.16199453       4.11280104       1.36617473       0.67963702       1.06008663
Si       2.77192869       0.00030061       2.68818891      -0.27113786       0.06417271       0.32467600
Si       4.20787253       1.32260614       4.06668772       0.39456895      -1.02041437      -0.21048944
Si       2.73573005       2.59722518      -0.06801682      -1.36927832       0.05170329      -0.77233893
Si       4.02633055       4.02758425       1.29253189       0.12483182       0.41717476      -0.22579714
8
Lattice="5.4702 0.0 0.0 0.0 5.4702 0.0 0.0 0.0 5.4702" Properties=species:S:1:pos:R:3:momenta:R:3 time_fs=45.0 temperature_K=144.51655989919956 pbc="T T T"
Si       0.01509110      -0.00454126       0.09413316       0.28527506       0.15386398       0.20822361
Si       1.34415252       1.45179513       1.47003905      -0.12132355      -0.17582928      -0.00142494
Si      -0.07145773       2.85139281       2.75223137      -0.26871297      -0.29633967      -0.48539572
Si       1.39143563       4.16768249       4.12215234       1.37766510       0.61906692       1.07489405
Si       2.76942349       0.00089278       2.69126117      -0.30021118       0.07101348       0.37624944
Si       4.21091776       1.31359818       4.06496156       0.30061514      -1.03619369      -0.18374734
Si       2.72354126       2.59819394      -0.07478131      -1.41265556       0.16838099      -0.77279426
Si       4.02749598       4.03158592       1.29060266       0.13934796       0.49603727      -0.21600484
8
Lattice="5.4702 0.0 0.0 0.0 5.4702 0.0 0.0 0.0 5.4702" Properties=species:S:1:pos:R:3:momenta:R:3 time_fs=47.5 temperature_K=143.2980090674215 pbc="T T T"
Si       0.01771876      -0.00312314       0.09575463       0.31561355       0.16985908       0.16263655
Si       1.34309116       1.44990000       1.46967663      -0.12139929      -0.25666690      -0.08101855
Si      -0.07329287       2.84858195       2.74815650      -0.14976380      -0.34470658      -0.44394547
Si       1.40341324       4.17278949       4.13153706       1.35614769       0.54745284       1.06785494
Si       2.76670474       0.00153774       2.69473918      -0.32001303       0.07617136       0.41733637
Si       4.21311087       1.30454657       4.06348271       0.20000619      -1.03025857      -0.15404929
Si       2.71112178       2.60014247      -0.08149532      -1.42193865       0.27531233      -0.76049713
Si       4.02873232       4.03622490       1.28874861       0.14134733       0.56283643      -0.20831742
8
Lattice="5.4702 0.0 0.0 0.0 5.4702 0.0 0.0 0.0 5.4702" Properties=species:S:1:pos:R:3:momenta:R:3 time_fs=50.0 temperature_K=138.05430405137918 pbc="T T T"
Si       0.02060661      -0.00158210       0.09697635       0.34460119       0.18183992       0.11672235
Si       1.34203120       1.44732394       1.46863032      -0.12088430      -0.33133977      -0.15772474
Si      -0.07406251       2.84539249       2.74450618      -0.02573109      -0.38316028      -0.38881539
Si       1.41506064       4.17723631       4.14076704       1.30228122       0.46878595       1.03959925
Si       2.76385236       0.00221897       2.69852803      -0.33086066       0.07923850       0.44725220
Si       4.21440239       1.29564389       4.06227403       0.09476760      -1.00207801      -0.12206146
Si       2.69877145       2.60297336      -0.08804027      -1.39684240       0.36970697      -0.73384272
Si       4.02993787       4.04139314       1.28695832       0.13266842       0.61700673      -0.20112949
8
Lattice="5.4702 0.0 0.0 0.0 5.4702 0.0 0.0 0.0 5.4702" Properties=species:S:1:pos:R:3:momenta:R:3 time_fs=52.5 temperature_K=129.15638183939504 pbc="T T T"
Si       0.02373802       0.00004352       0.09779387       0.37110464       0.18908600       0.07011611
Si       1.34098083       1.44412664       1.46692853      -0.11907167      -0.39854193      -0.23082057
Si      -0.07373975       2.84190607       2.74138714       0.09941786      -0.41280894      -0.32295399
Si       1.42609899       4.18097886       4.14965906       1.21704499       0.38707268       0.99063689
Si       2.76094226       0.00291656       2.70252799      -0.33334428       0.07985680       0.46556812
Si       4.21476122       1.28708518       4.06135301      -0.01293361      -0.95162152      -0.08833820
Si       2.68678995       2.60656498      -0.09428407      -1.33768568       0.44884629      -0.69137098
Si       4.03102849       4.04697820       1.28523447       0.11546775       0.65811062      -0.19283738
8
Lattice="5.4702 0.0 0.0 0.0 5.4702 0.0 0.0 0.0 5.4702" Properties=species:S:1:pos:R:3:momenta:R:3 time_fs=55.0 temperature_K=117.26162446149793 pbc="T T T"
Si       0.02708564       0.00170962       0.09819949       0.39379808       0.19101008       0.02243494
Si       1.33995474       1.44037869       1.46460603      -0.11518693      -0.45709298      -0.29956392
Si      -0.07233108       2.83819568       2.73888044       0.22203466      -0.43452920      -0.24926276
Si       1.43625969       4.18400733       4.15803404       1.10182363       0.30609558       0.92141152
Si       2.75804413       0.00360781       2.70663667      -0.32829346       0.07774369       0.47211340
Si       4.21417554       1.27906353       4.06073292      -0.12087629      -0.87936088      -0.05328489
Si       2.67547155       2.61077296      -0.10008298      -1.24538809       0.51028850      -0.63190230
Si       4.03193981       4.05286439       1.28359338       0.09208840       0.68584522      -0.18194599
8
Lattice="5.4702 0.0 0.0 0.0 5.4702 0.0 0.0 0.0 5.4702" Properties=species:S:1:pos:R:3:momenta:R:3 time_fs=57.5 temperature_K=103.30521044394258 pbc="T T T"
Si       0.03060973       0.00336772       0.09818214       0.41119470       0.18719994      -0.02669334
Si       1.33897454       1.43616031       1.46170426      -0.10843131      -0.50598230      -0.36318222
Si      -0.06987308       2.83432754       2.73704231       0.33890064      -0.44899821      -0.17051011
Si       1.44528839       4.18634302       4.16571686       0.95850599       0.22913849       0.83241851
Si       2.75521948       0.00426793       2.71075132      -0.31673373       0.07271578       0.46697390
Si       4.21265287       1.27176576       4.06042420      -0.22686687      -0.78626268      -0.01715237
Si       2.66509974       2.61543368      -0.10528474      -1.12150789       0.55212546      -0.55470125
Si       4.03262833       4.05893404       1.28206365       0.06493846       0.70006353      -0.16715312
8
Lattice="5.4702 0.0 0.0 0.0 5.4702 0.0 0.0 0.0 5.4702" Properties=species:S:1:pos:R:3:momenta:R:3 time_fs=60.0 temperature_K=88.48743848592196 pbc="T T T"
Si       0.03425722       0.00496668       0.09772776       0.42174259       0.17746997      -0.07758269
Si       1.33806875       1.43155965       1.45827148      -0.09803298      -0.54440973      -0.42087679
Si      -0.06642834       2.83036262       2.73590557       0.44729321      -0.45675371      -0.08927515
Si       1.45294973       4.18803267       4.17253754       0.78956391       0.15867824       0.72436724
Si       2.75252023       0.00487108       2.71477108      -0.29982703       0.06471204       0.45049069
Si       4.21021954       1.26536811       4.06043566      -0.32881525      -0.67377253       0.01994277
Si       2.65594135       2.62037021      -0.10973327      -0.96831545       0.57327127      -0.45965745
Si       4.03307152       4.06506897       1.28068419       0.03639100       0.70080445      -0.14740862
8
Lattice="5.4702 0.0 0.0 0.0 5.4702 0.0 0.0 0.0 5.4702" Properties=species:S:1:pos:R:3:momenta:R:3 time_fs=62.5 temperature_K=74.23770429242717 pbc="T T T"
Si       0.03796137       0.00645482       0.09681979       0.42387630       0.16188873      -0.13048011
Si       1.33727233       1.42667083       1.45436304      -0.08330274      -0.57182107      -0.47183951
Si      -0.06208098       2.82635756       2.73548144       0.54501361      -0.45826502      -0.00791621
Si       1.45903302       4.18914009       4.17833403       0.59820146       0.09610108       0.59841465
Si       2.74998778       0.00539146       2.71859915      -0.27880520       0.05381060       0.42325984
Si       4.20691944       1.26003220       4.06077555      -0.42480392      -0.54378819       0.05797195
Si       2.64823990       2.62540077      -0.11327489      -0.78888444       0.57375335      -0.34746455
Si       4.03326714       4.07115228       1.27950188       0.00870494       0.68832051      -0.12194606
8
Lattice="5.4702 0.0 0.0 0.0 5.4702 0.0 0.0 0.0 5.4702" Properties=species:S:1:pos:R:3:momenta:R:3 time_fs=65.0 temperature_K=62.126837977963596 pbc="T T T"
Si       0.04164195       0.00778224       0.09543994       0.41608836       0.14079148      -0.18553309
Si       1.33662568       1.42159160       1.45004125      -0.06368869      -0.58793740      -0.51528891
Si      -0.05693207       2.82236490       2.73576150       0.63037886      -0.45400593       0.07143606
Si       1.46335926       4.18973568       4.18295716       0.38847336       0.04149438       0.45636677
Si       2.74765269       0.00580459       2.72214510      -0.25490405       0.04023105       0.38613498
Si       4.20281223       1.25590116       4.06145205      -0.51314745      -0.39862523       0.09693268
Si       2.64220822       2.63034955      -0.11576601      -0.58717225       0.55494328      -0.21975579
Si       4.03323203       4.07707029       1.27856902      -0.01602814       0.66310837      -0.09029270
8
Lattice="5.4702 0.0 0.0 0.0 5.4702 0.0 0.0 0.0 5.4702" Properties=species:S:1:pos:R:3:momenta:R:3 time_fs=67.5 temperature_K=53.71614458009919 pbc="T T T"
Si       0.04520613       0.00890309       0.09356932       0.39702988       0.11476922      -0.24271287
Si       1.33617327       1.41642089       1.44537495      -0.03883508      -0.59277865      -0.55052509
Si      -0.05109525       2.81843279       2.73671969       0.70218683      -0.44451985       0.14687122
Si       1.46578877       4.18988460       4.18627674       0.16532166      -0.00641600       0.30077704
Si       2.74553490       0.00608842       2.72532710      -0.22930569       0.02430826       0.34023942
Si       4.19797116       1.25309624       4.06247315      -0.59244141      -0.24097296       0.13677893
Si       2.63802058       2.63505908      -0.11708170      -0.36804304       0.51966485      -0.07915969
Si       4.03300044       4.08271489       1.27794074      -0.03591315       0.62594512      -0.05226896
8
Lattice="5.4702 0.0 0.0 0.0 5.4702 0.0 0.0 0.0 5.4702" Properties=species:S:1:pos:R:3:momenta:R:3 time_fs=70.0 temperature_K=50.356145433303794 pbc="T T T"
Si       0.04855036       0.00977780       0.09119022       0.36560942       0.08466024      -0.30177619
Si       1.33596147       1.41125603       1.44043849      -0.00866349      -0.58669135      -0.57700755
Si      -0.04469268       2.81460419       2.73831416       0.75969048      -0.43046246       0.21668823
Si       1.46622884       4.18963528       4.18818833      -0.06547696      -0.05014470       0.13497339
Si       2.74364447       0.00622443       2.72807431      -0.20307846       0.00651510       0.28695428
Si       4.19248036       1.25171370       4.06384601      -0.66159484      -0.07384467       0.17734999
Si       2.63580493       2.63940269      -0.11712412      -0.13720373       0.47211153       0.07076951
Si       4.03262226       4.08798587       1.27767260      -0.04928242       0.57785631      -0.00795167
8
Lattice="5.4702 0.0 0.0 0.0 5.4702 0.0 0.0 0.0 5.4702" Properties=species:S:1:pos:R:3:momenta:R:3 time_fs=72.5 temperature_K=52.971601426915896 pbc="T T T"
Si       0.05156300       0.01037510       0.08828807       0.32108759       0.05152587      -0.36224653
Si       1.33603604       1.40618989       1.43530996       0.02659815      -0.57034981      -0.59442568
Si      -0.03785132       2.81091564       2.74048902       0.80251348      -0.41264627       0.27936509
Si       1.46464034       4.18900987       4.18861967      -0.29747982      -0.09311165      -0.03703390
Si       2.74198277       0.00619880       2.73032904      -0.17713545      -0.01254476       0.22790452
Si       4.18643210       1.25182225       4.06557567      -0.71984446       0.09948001       0.21831304
Si       2.63563622       2.64329543      -0.11582992       0.09897545       0.41755007       0.22575855
Si       4.03216085       4.09279303       1.27781849      -0.05471494       0.52009654       0.04236491
8
Lattice="5.4702 0.0 0.0 0.0 5.4702 0.0 0.0 0.0 5.4702" Properties=species:S:1:pos:R:3:momenta:R:3 time_fs=75.0 temperature_K=61.88758387791814 pbc="T T T"
Si       0.05412782       0.01067382       0.08485348       0.26316775       0.01659711      -0.42341642
Si       1.33643939       1.40130803       1.43006896       0.06641828      -0.54474396      -0.60276038
Si      -0.03070019       2.80739581       2.74317569       0.83054292      -0.39207094       0.33352179
Si       1.46104242       4.18799848       4.18753586      -0.52385641      -0.13911342      -0.21076492
Si       2.74054393       0.00600348       2.73204880      -0.15222129      -0.03216450       0.16493803
Si       4.17992390       1.25346096       4.06766333      -0.76674705       0.27551755       0.25911994
Si       2.63753181       2.64670135      -0.11317507       0.33374350       0.36183394       0.38114608
Si       4.03169092       4.09705809       1.27842896      -0.05104770       0.45414422       0.09821587
8
Lattice="5.4702 0.0 0.0 0.0 5.4702 0.0 0.0 0.0 5.4702" Properties=species:S:1:pos:R:3:momenta:R:3 time_fs=77.5 temperature_K=76.74700216568097 pbc="T T T"
Si       0.05612814       0.01066414       0.08088420       0.19204979      -0.01875842      -0.48436405
Si       1.33720798       1.39668605       1.42479377       0.10996567      -0.51116316      -0.60233618
Si      -0.02336849       2.80406371       2.74629406       0.84383666      -0.36993770       0.37788995
Si       1.45551441       4.18655863       4.18494217      -0.73774382      -0.19169384      -0.38155594
Si       2.73931630       0.00563694       2.73320810      -0.12891295      -0.05156102       0.10008806
Si       4.17305587       1.25663783       4.07010441      -0.80214678       0.45065332       0.29899019
Si       2.64144959       2.64963616      -0.10917658       0.56032277       0.31080492       0.53228654
Si       4.03129619       4.10071655       1.27954985      -0.03737134       0.38165588       0.15900142
8
Lattice="5.4702 0.0 0.0 0.0 5.4702 0.0 0.0 0.0 5.4702" Properties=species:S:1:pos:R:3:momenta:R:3 time_fs=80.0 temperature_K=96.54467416831349 pbc="T T T"
Si       0.05745133       0.01034863       0.07638685       0.10846112      -0.05309797      -0.54399846
Si       1.33836978       1.39238711       1.41955826       0.15614085      -0.47114916      -0.59384221
Si      -0.01598448       2.80092700       2.74975332       0.84253637      -0.34764796       0.41128784
Si       1.44819443       4.18462021       4.18088441      -0.93262101      -0.25352621      -0.54485753
Si       2.73828386       0.00510471       2.73379986      -0.10764169      -0.06992384       0.03551656
Si       4.16592838       1.26132894       4.07288649      -0.82612535       0.62122091       0.33691651
Si       2.64728942       2.65216441      -0.10389054       0.77227516       0.26970026       0.67495102
Si       4.03106727       4.10371899       1.28122135      -0.01302544       0.30442397       0.22402628
8
Lattice="5.4702 0.0 0.0 0.0 5.4702 0.0 0.0 0.0 5.4702" Properties=species:S:1:pos:R:3:momenta:R:3 time_fs=82.5 temperature_K=119.7667092282652 pbc="T T T"
Si       0.05799341       0.00974246       0.07137807       0.01365592      -0.08498895      -0.60112745
Si       1.33994218       1.38846008       1.41442871       0.20363132      -0.42641130      -0.57831225
Si      -0.00867505       2.79798026       2.75345261       0.82680666      -0.32678437       0.43259917
Si       1.43927489       4.18209534       4.17544675      -1.10264778      -0.32593466      -0.69647895
Si       2.73742731       0.00441920       2.73383615      -0.08872905      -0.08648762      -0.02656962
Si       4.15864031       1.26747844       4.07598743      -0.83893501       0.78359156       0.37169663
Si       2.65489752       2.65439208      -0.09740699       0.96382120       0.24267946       0.80565011
Si       4.03109943       4.10603214       1.28347727       0.02239675       0.22433589       0.29254235
8
Lattice="5.4702 0.0 0.0 0.0 5.4702 0.0 0.0 0.0 5.4702" Properties=species:S:1:pos:R:3:momenta:R:3 time_fs=85.0 temperature_K=144.5967521841204 pbc="T T T"
Si       0.05766367       0.00887300       0.06588509      -0.09058894      -0.11309450      -0.65453416
Si       1.34193038       1.38493846       1.40946105       0.25097969      -0.37874551      -0.55707308
Si      -0.00156572       2.79520355       2.75728158       0.79678948      -0.30907992       0.44076546
Si       1.42899526       4.17889146       4.16874781      -1.24294645      -0.40864248      -0.83274590
Si       2.73672492       0.00359918       2.73334824      -0.07242070      -0.10058394      -0.08401015
Si       4.15128782       1.27499921       4.07937395      -0.84092850       0.93426707       0.40198471
Si       2.66407328       2.65645565      -0.08984252       1.13006389       0.23254360       0.92182563
Si       4.03149038       4.10763950       1.28634480       0.06905152       0.14333568       0.36378749
8
Lattice="5.4702 0.0 0.0 0.0 5.4702 0.0 0.0 0.0 5.4702" Properties=species:S:1:pos:R:3:momenta:R:3 time_fs=87.5 temperature_K=169.13992632536937 pbc="T T T"
Si       0.05638917       0.00777859       0.05994564      -0.20199352      -0.13625640      -0.70305055
Si       1.34432650       1.38183997       1.40469860       0.29665993      -0.32994301      -0.53166539
Si       0.00521905       2.79256124       2.76112090       0.75258694      -0.29638353       0.43479105
Si       1.41763264       4.17492552       4.16093587      -1.34980857      -0.49976691      -0.95054755
Si       2.73615303       0.00266863       2.73238570      -0.05891124      -0.11168943      -0.13478806
Si       4.14396379       1.28377447       4.08300057      -0.83249669       1.06997485       0.42635892
Si       2.67457762       2.65850991      -0.08133179       1.26710369       0.24067082       1.02189069
Si       4.03233819       4.10854168       1.28984451       0.12685945       0.06339361       0.43701090
8
Lattice="5.4702 0.0 0.0 0.0 5.4702 0.0 0.0 0.0 5.4702" Properties=species:S:1:pos:R:3:momenta:R:3 time_fs=90.0 temperature_K=191.62508434683025 pbc="T T T"
Si       0.05411871       0.00650657       0.05360712      -0.31789328      -0.15358864      -0.74564881
Si       1.34710929       1.37916700       1.40017064       0.33915557      -0.28170592      -0.50373801
Si       0.01155588       2.79000113       2.76484275       0.69436961      -0.29063129       0.41373134
Si       1.40549104       4.17013746       4.15218424      -1.42080327      -0.59597868      -1.04724982
Si       2.73568644       0.00165538       2.73101479      -0.04835727      -0.11945667      -0.17712558
Si       4.13675767       1.29366013       4.08680935      -0.81402700       1.18775860       0.44340044
Si       2.68614178       2.66071578      -0.07201941       1.37205046       0.26712838       1.10513423
Si       4.03373918       4.10875655       1.29399053       0.19550518      -0.01352578       0.51149620
8
Lattice="5.4702 0.0 0.0 0.0 5.4702 0.0 0.0 0.0 5.4702" Properties=species:S:1:pos:R:3:momenta:R:3 time_fs=92.5 temperature_K=210.55897833169803 pbc="T T T"
Si       0.05082565       0.00511063       0.04692504      -0.43535389      -0.16453302      -0.78150770
Si       1.35024453       1.37690772       1.39589195       0.37703175      -0.23557864      -0.47493579
Si       0.01732326       2.78745401       2.76831145       0.62238243      -0.29374869       0.37675420
Si       1.39289037       4.16450141       4.14268745      -1.45468880      -0.69286976      -1.12062735
Si       2.73529879       0.00058944       2.72931596      -0.04087290      -0.12373015      -0.20956729
Si       4.12975559       1.30448796       4.09073026      -0.78589357       1.28505922       0.45178200
Si       2.69847597       2.66322982      -0.06205301       1.44297122       0.31089461       1.17153310
Si       4.03578585       4.10831901       1.29879091       0.27442379      -0.08549356       0.58656883
8
Lattice="5.4702 0.0 0.0 0.0 5.4702 0.0 0.0 0.0 5.4702" Properties=species:S:1:pos:R:3:momenta:R:3 time_fs=95.0 temperature_K=224.83852514307685 pbc="T T T"
Si       0.04650975       0.00364777       0.03996106      -0.55128961      -0.16889136      -0.81004401
Si       1.35368605       1.37503769       1.39186335       0.40899926      -0.19288961      -0.44679764
Si       0.02240218       2.78483438       2.77138489       0.53697386      -0.30751876       0.32323341
Si       1.38015675       4.15803311       4.13265785      -1.45126564      -0.78540661      -1.16881781
Si       2.73496292      -0.00049866       2.72738073      -0.03651637      -0.12454810      -0.23104167
Si       4.12304035       1.31606932       4.09468240      -0.74849067       1.35978712       0.45036142
Si       2.71127741       2.66619583      -0.05157824       1.47881237       0.37011364       1.22151853
Si       4.03856458       4.10728057       1.30424797       0.36277680      -0.15064631       0.66158777
8
Lattice="5.4702 0.0 0.0 0.0 5.4702 0.0 0.0 0.0 5.4702" Properties=species:S:1:pos:R:3:momenta:R:3 time_fs=97.5 temperature_K=233.83341647418587 pbc="T T T"
Si       0.04119801       0.00217518       0.03278091      -0.66257908      -0.16681753      -0.83091495
Si       1.35737726       1.37352190       1.38807293       0.43396622      -0.15472251      -0.42067593
Si       0.02667756       2.78204226       2.77391678       0.43871293      -0.33343557       0.25286445
Si       1.36761387       4.15079342       4.12232255      -1.41127071      -0.86838823      -1.19031535
Si       2.73465158      -0.00157953       2.72530816      -0.03523513      -0.12213539      -0.24090861
Si       4.11669091       1.32819960       4.09857608      -0.70233999       1.41039427       0.43829174
Si       2.72423770       2.66973855      -0.04073587       1.47933201       0.44232330       1.25574269
Si       4.04215310       4.10570861       1.31035846       0.45941376      -0.20721833       0.73591595
8
Lattice="5.4702 0.0 0.0 0.0 5.4702 0.0 0.0 0.0 5.4702" Properties=species:S:1:pos:R:3:momenta:R:3 time_fs=100.0 temperature_K=237.44009903959494 pbc="T T T"
Si       0.03494451       0.00074726       0.02545228      -0.76616267      -0.15878774      -0.84401439
Si       1.36125300       1.37231698       1.38449802       0.45107540      -0.12191255      -0.39768199
Si       0.03004079       2.77896653       2.77576011       0.32855208      -0.37252212       0.16582048
Si       1.35557519       4.14288781       4.11192003      -1.33629899      -0.93689044      -1.18404945
Si       2.73433880      -0.00262656       2.72320089      -0.03678955      -0.11689130      -0.23898065
Si       4.11078044       1.34066333       4.10231598      -0.64827378       1.43594768       0.41516026
Si       2.73704973       2.67395921      -0.02966073       1.44507392       0.52463325       1.27487703
Si       4.04661755       4.10368544       1.31711342       0.56282358      -0.25357678       0.80886871
