153
Lattice="10.0 0.0 0.0 0.0 10.0 0.0 0.0 0.0 43.74" Properties=species:S:1:pos:R:3:move_mask:L:1:momenta:R:3 etch=trj_CF2_30eV_case1 idx=0 index=0 source=trj_CF2_30eV_case1/0000/OUTCAR converged=T time_fs=0.0 pbc="T T T"
O        2.28000000       4.48000000      13.83000000  T       0.00000000       0.00000000       0.00000000
O        1.48000000       2.43000000      12.57000000  T       0.00000000       0.00000000       0.00000000
O        3.91000000       2.72000000      14.18000000  T       0.00000000       0.00000000       0.00000000
O        3.82000000       4.56000000      16.06000000  T       0.00000000       0.00000000       0.00000000
O        1.65000000       2.89000000      15.79000000  T       0.00000000       0.00000000       0.00000000
O        5.10000000       1.64000000      16.04000000  T       0.00000000       0.00000000       0.00000000
O        5.26000000       0.82000000      13.25000000  T       0.00000000       0.00000000       0.00000000
O        6.16000000       3.63000000      14.03000000  T       0.00000000       0.00000000       0.00000000
O        7.07000000       1.33000000      14.62000000  T       0.00000000       0.00000000       0.00000000
O        9.07000000       2.29000000      16.26000000  T       0.00000000       0.00000000       0.00000000
O        9.54000000       0.41000000      14.71000000  T       0.00000000       0.00000000       0.00000000
O        0.87000000       9.79000000      12.64000000  T       0.00000000       0.00000000       0.00000000
O        1.23000000       8.21000000      14.65000000  T       0.00000000       0.00000000       0.00000000
O        9.87000000       6.98000000      12.02000000  T       0.00000000       0.00000000       0.00000000
O        5.15000000       6.18000000      14.53000000  T       0.00000000       0.00000000       0.00000000
O        5.59000000       5.63000000      12.17000000  T       0.00000000       0.00000000       0.00000000
O        7.78000000       5.79000000      13.63000000  T       0.00000000       0.00000000       0.00000000
O        5.61000000       8.19000000      12.68000000  T       0.00000000       0.00000000       0.00000000
O        8.54000000       8.40000000      13.64000000  T       0.00000000       0.00000000       0.00000000
O        2.44000000       5.22000000      21.43000000  T       0.00000000       0.00000000       0.00000000
O        0.22000000       6.19000000      22.75000000  T       0.00000000       0.00000000       0.00000000
O        1.83000000       0.12000000      19.96000000  T       0.00000000       0.00000000       0.00000000
O        2.16000000       2.91000000      19.87000000  T       0.00000000       0.00000000       0.00000000
O        3.43000000       1.25000000      18.21000000  T       0.00000000       0.00000000       0.00000000
O        0.92000000       1.48000000      18.01000000  T       0.00000000       0.00000000       0.00000000
O        0.40000000       4.11000000      17.73000000  T       0.00000000       0.00000000       0.00000000
O        9.09000000       1.35000000      21.39000000  T       0.00000000       0.00000000       0.00000000
O        5.42000000       2.96000000      18.39000000  T       0.00000000       0.00000000       0.00000000
O        4.60000000       3.97000000      20.63000000  T       0.00000000       0.00000000       0.00000000
O        7.11000000       2.68000000      20.21000000  T       0.00000000       0.00000000       0.00000000
O        6.45000000       0.41000000      21.41000000  T       0.00000000       0.00000000       0.00000000
O        6.64000000       5.25000000      19.38000000  T       0.00000000       0.00000000       0.00000000
O        7.90000000       9.80000000      16.74000000  T       0.00000000       0.00000000       0.00000000
O        3.87000000       7.04000000      16.86000000  T       0.00000000       0.00000000       0.00000000
O        3.70000000       9.42000000      21.43000000  T       0.00000000       0.00000000       0.00000000
O        3.20000000       7.95000000      19.09000000  T       0.00000000       0.00000000       0.00000000
O        1.31000000       6.62000000      17.79000000  T       0.00000000       0.00000000       0.00000000
O        3.21000000       5.28000000      18.89000000  T       0.00000000       0.00000000       0.00000000
O        0.36000000       5.53000000      19.99000000  T       0.00000000       0.00000000       0.00000000
O        1.55000000       7.69000000      21.02000000  T       0.00000000       0.00000000       0.00000000
O        4.75000000       8.47000000      21.90000000  T       0.00000000       0.00000000       0.00000000
O        8.02000000       0.22000000      19.39000000  T       0.00000000       0.00000000       0.00000000
O        6.92000000       8.85000000      23.74000000  T       0.00000000       0.00000000       0.00000000
O        6.20000000       5.74000000      16.87000000  T       0.00000000       0.00000000       0.00000000
O        5.77000000       0.31000000      18.18000000  T       0.00000000       0.00000000       0.00000000
O        8.72000000       5.97000000      17.91000000  T       0.00000000       0.00000000       0.00000000
O        6.98000000       7.87000000      18.43000000  T       0.00000000       0.00000000       0.00000000
O        2.28000000       4.48000000       3.83000000  T       0.00000000       0.00000000       0.00000000
O        1.48000000       2.43000000       2.57000000  T       0.00000000       0.00000000       0.00000000
O        3.91000000       2.72000000       4.18000000  T       0.00000000       0.00000000       0.00000000
O        3.71000000       4.61000000       6.16000000  T       0.00000000       0.00000000       0.00000000
O        1.72000000       2.93000000       5.80000000  T       0.00000000       0.00000000       0.00000000
O        4.82000000       1.32000000       5.89000000  T       0.00000000       0.00000000       0.00000000
O        5.26000000       0.82000000       3.25000000  T       0.00000000       0.00000000       0.00000000
O        6.16000000       3.63000000       4.03000000  T       0.00000000       0.00000000       0.00000000
O        7.07000000       1.33000000       4.62000000  T       0.00000000       0.00000000       0.00000000
O        8.96000000       2.45000000       6.26000000  T       0.00000000       0.00000000       0.00000000
O        9.54000000       0.41000000       4.71000000  T       0.00000000       0.00000000       0.00000000
O        0.87000000       9.79000000       2.64000000  T       0.00000000       0.00000000       0.00000000
O        1.23000000       8.21000000       4.65000000  T       0.00000000       0.00000000       0.00000000
O        9.87000000       6.98000000       2.02000000  F       0.00000000       0.00000000       0.00000000
O        5.15000000       6.18000000       4.53000000  T       0.00000000       0.00000000       0.00000000
O        5.59000000       5.63000000       2.17000000  F       0.00000000       0.00000000       0.00000000
O        7.78000000       5.79000000       3.63000000  T       0.00000000       0.00000000       0.00000000
O        5.61000000       8.19000000       2.68000000  T       0.00000000       0.00000000       0.00000000
O        8.54000000       8.40000000       3.64000000  T       0.00000000       0.00000000       0.00000000
O        3.55000000       4.18000000      11.53000000  T       0.00000000       0.00000000       0.00000000
O        1.14000000       4.89000000      11.35000000  T       0.00000000       0.00000000       0.00000000
O        1.74000000       0.92000000      10.34000000  T       0.00000000       0.00000000       0.00000000
O        2.79000000       3.09000000       9.32000000  T       0.00000000       0.00000000       0.00000000
O        3.58000000       0.96000000       8.14000000  T       0.00000000       0.00000000       0.00000000
O        1.07000000       1.66000000       7.93000000  T       0.00000000       0.00000000       0.00000000
O        0.43000000       4.17000000       7.89000000  T       0.00000000       0.00000000       0.00000000
O        9.29000000       1.31000000      11.44000000  T       0.00000000       0.00000000       0.00000000
O        5.92000000       2.56000000       7.78000000  T       0.00000000       0.00000000       0.00000000
O        5.26000000       4.03000000       9.71000000  T       0.00000000       0.00000000       0.00000000
O        7.34000000       2.44000000      10.03000000  T       0.00000000       0.00000000       0.00000000
O        6.84000000       0.20000000      11.30000000  T       0.00000000       0.00000000       0.00000000
O        7.52000000       4.86000000       8.96000000  T       0.00000000       0.00000000       0.00000000
O        8.09000000       9.73000000       6.60000000  T       0.00000000       0.00000000       0.00000000
O        4.07000000       7.05000000       6.85000000  T       0.00000000       0.00000000       0.00000000
O        3.95000000       9.60000000      11.25000000  T       0.00000000       0.00000000       0.00000000
O        3.06000000       8.35000000       8.87000000  T       0.00000000       0.00000000       0.00000000
O        1.54000000       6.64000000       7.47000000  T       0.00000000       0.00000000       0.00000000
O        3.35000000       5.61000000       9.01000000  T       0.00000000       0.00000000       0.00000000
O        0.20000000       6.49000000       9.53000000  T       0.00000000       0.00000000       0.00000000
O        2.28000000       7.42000000      11.08000000  T       0.00000000       0.00000000       0.00000000
O        4.99000000       7.36000000      10.21000000  T       0.00000000       0.00000000       0.00000000
O        8.18000000       0.05000000       9.21000000  T       0.00000000       0.00000000       0.00000000
O        7.52000000       7.21000000      11.37000000  T       0.00000000       0.00000000       0.00000000
O        6.18000000       5.50000000       6.88000000  T       0.00000000       0.00000000       0.00000000
O        5.81000000       9.90000000       8.03000000  T       0.00000000       0.00000000       0.00000000
O        8.94000000       6.08000000       7.09000000  T       0.00000000       0.00000000       0.00000000
O        7.27000000       7.67000000       8.17000000  T       0.00000000       0.00000000       0.00000000
O        3.55000000       4.18000000       1.53000000  F       0.00000000       0.00000000       0.00000000
O        1.14000000       4.89000000       1.35000000  F       0.00000000       0.00000000       0.00000000
O        9.29000000       1.31000000       1.44000000  F       0.00000000       0.00000000       0.00000000
O        6.84000000       0.20000000       1.30000000  F       0.00000000       0.00000000       0.00000000
O        3.95000000       9.60000000       1.25000000  F       0.00000000       0.00000000       0.00000000
O        2.28000000       7.42000000       1.08000000  F       0.00000000       0.00000000       0.00000000
O        7.52000000       7.21000000       1.37000000  F       0.00000000       0.00000000       0.00000000
Si       2.10000000       3.98000000      12.32000000  T       0.00000000       0.00000000       0.00000000
Si       2.89000000       3.65000000      15.09000000  T       0.00000000       0.00000000       0.00000000
Si       0.89000000       1.15000000      11.77000000  T       0.00000000       0.00000000       0.00000000
Si       8.27000000       0.95000000      15.61000000  T       0.00000000       0.00000000       0.00000000
Si       5.41000000       1.99000000      14.43000000  T       0.00000000       0.00000000       0.00000000
Si       4.79000000       5.95000000      16.08000000  T       0.00000000       0.00000000       0.00000000
Si       0.00000000       9.16000000      13.87000000  T       0.00000000       0.00000000       0.00000000
Si       6.21000000       5.21000000      13.71000000  T       0.00000000       0.00000000       0.00000000
Si       5.42000000       9.77000000      12.06000000  T       0.00000000       0.00000000       0.00000000
Si       8.39000000       7.04000000      12.74000000  T       0.00000000       0.00000000       0.00000000
Si       3.04000000       4.33000000      20.23000000  T       0.00000000       0.00000000       0.00000000
Si       2.14000000       1.52000000      19.13000000  T       0.00000000       0.00000000       0.00000000
Si       0.48000000       2.70000000      17.01000000  T       0.00000000       0.00000000       0.00000000
Si       4.92000000       1.60000000      17.69000000  T       0.00000000       0.00000000       0.00000000
Si       5.95000000       3.77000000      19.66000000  T       0.00000000       0.00000000       0.00000000
Si       7.63000000       1.18000000      20.66000000  T       0.00000000       0.00000000       0.00000000
Si       2.57000000       8.73000000      20.39000000  T       0.00000000       0.00000000       0.00000000
Si       2.84000000       6.67000000      18.12000000  T       0.00000000       0.00000000       0.00000000
Si       1.08000000       6.16000000      21.43000000  T       0.00000000       0.00000000       0.00000000
Si       0.21000000       5.58000000      18.40000000  T       0.00000000       0.00000000       0.00000000
Si       6.23000000       9.28000000      22.47000000  T       0.00000000       0.00000000       0.00000000
Si       7.13000000       6.24000000      18.16000000  T       0.00000000       0.00000000       0.00000000
Si       7.18000000       9.53000000      18.11000000  T       0.00000000       0.00000000       0.00000000
Si       2.10000000       3.98000000       2.32000000  F       0.00000000       0.00000000       0.00000000
Si       2.91000000       3.65000000       5.03000000  T       0.00000000       0.00000000       0.00000000
Si       0.89000000       1.15000000       1.77000000  F       0.00000000       0.00000000       0.00000000
Si       8.36000000       1.04000000       5.60000000  T       0.00000000       0.00000000       0.00000000
Si       5.41000000       1.99000000       4.43000000  T       0.00000000       0.00000000       0.00000000
Si       4.78000000       5.76000000       6.06000000  T       0.00000000       0.00000000       0.00000000
Si       0.00000000       9.16000000       3.87000000  T       0.00000000       0.00000000       0.00000000
Si       6.21000000       5.21000000       3.71000000  T       0.00000000       0.00000000       0.00000000
Si       5.42000000       9.77000000       2.06000000  F       0.00000000       0.00000000       0.00000000
Si       8.39000000       7.04000000       2.74000000  T       0.00000000       0.00000000       0.00000000
Si       3.72000000       4.29000000       9.89000000  T       0.00000000       0.00000000       0.00000000
Si       2.29000000       1.62000000       9.01000000  T       0.00000000       0.00000000       0.00000000
Si       0.56000000       2.81000000       6.94000000  T       0.00000000       0.00000000       0.00000000
Si       5.03000000       1.19000000       7.45000000  T       0.00000000       0.00000000       0.00000000
Si       6.59000000       3.44000000       9.04000000  T       0.00000000       0.00000000       0.00000000
Si       7.93000000       1.02000000      10.50000000  T       0.00000000       0.00000000       0.00000000
Si       3.50000000       8.23000000      10.42000000  T       0.00000000       0.00000000       0.00000000
Si       3.07000000       6.90000000       8.08000000  T       0.00000000       0.00000000       0.00000000
Si       0.91000000       6.44000000      10.98000000  T       0.00000000       0.00000000       0.00000000
Si       0.20000000       5.79000000       8.10000000  T       0.00000000       0.00000000       0.00000000
Si       5.91000000       7.08000000      11.49000000  T       0.00000000       0.00000000       0.00000000
Si       7.41000000       6.06000000       7.85000000  T       0.00000000       0.00000000       0.00000000
Si       7.31000000       9.32000000       7.93000000  T       0.00000000       0.00000000       0.00000000
Si       7.93000000       1.02000000       0.50000000  F       0.00000000       0.00000000       0.00000000
Si       0.91000000       6.44000000       0.98000000  F       0.00000000       0.00000000       0.00000000
Si       5.91000000       7.08000000       1.49000000  F       0.00000000       0.00000000       0.00000000
C        5.00000000       5.00000000      26.74000000  T       0.00000000       0.00000000     -13.15636429
F        5.79138986       6.03135934      26.74000000  T       0.00000000       0.00000000     -20.81008350
F        5.79138986       3.96864066      26.74000000  T       0.00000000       0.00000000     -20.81008350
153
Lattice="10.0 0.0 0.0 0.0 10.0 0.0 0.0 0.0 43.74" Properties=species:S:1:pos:R:3:move_mask:L:1:momenta:R:3 etch=trj_CF2_30eV_case1 idx=0 index=0 source=trj_CF2_30eV_case1/0000/OUTCAR converged=T time_fs=1.0 pbc="T T T"
O        2.27975746       4.48047042      13.83001903  T      -0.07890904       0.15305204       0.00630801
O        1.48007868       2.43026665      12.56966743  T       0.02550651       0.08661387      -0.10832424
O        3.90982174       2.71981639      14.18016787  T      -0.05800450      -0.05982464       0.05467650
O        3.82008427       4.56024270      16.06021018  T       0.02726238       0.07881117       0.06832913
O        1.64986470       2.88991665      15.79040315  T      -0.04381775      -0.02703330       0.13108832
O        5.09983013       1.64006048      16.04051529  T      -0.05524520       0.01974733       0.16728387
O        5.25965682       0.82013982      13.24998699  T      -0.11174460       0.04558129      -0.00414397
O        6.15998605       3.62982728      14.03009683  T      -0.00453965      -0.05611575       0.03149030
O        7.07010800       1.33014139      14.62023004  T       0.03503834       0.04609644       0.07483324
O        9.06983957       2.28986755      16.26019902  T      -0.05216003      -0.04298286       0.06487499
O        9.53992387       0.41019196      14.71035679  T      -0.02451861       0.06219196       0.11584850
O        0.87014776       9.78969209      12.64008257  T       0.04810191      -0.09998414       0.02670939
O        1.22961575       8.21017053      14.64984035  T      -0.12503367       0.05545252      -0.05190618
O        9.86974318       6.98010000      12.02064844  T      -0.08307495       0.03233955       0.21072951
O        5.15019330       6.18002148      14.53016619  T       0.06296081       0.00697309       0.05411774
O        5.59025306       5.62986755      12.17015567  T       0.08231989      -0.04313280       0.05058866
O        7.78005203       5.79011529      13.63004595  T       0.01683785       0.03750440       0.01495575
O        5.60989942       8.19062085      12.67972785  T      -0.03271355       0.20182592      -0.08853892
O        8.54027576       8.39991345      13.63996861  T       0.08971739      -0.02814759      -0.01020052
O        2.43990504       5.21994130      21.43022963  T      -0.03084208      -0.01917713       0.07467553
O        0.21985272       6.18994907      22.75018280  T      -0.04787524      -0.01659003       0.05939065
O        1.83012663       0.12018590      19.96014311  T       0.04119068       0.06042887       0.04663460
O        2.16035197       2.91083853      19.87051485  T       0.11446528       0.27192912       0.16710716
O        3.43025811       1.25010542      18.20991801  T       0.08371966       0.03429529      -0.02654887
O        0.91993546       1.48026308      18.01007931  T      -0.02105244       0.08560902       0.02584401
O        0.40002707       4.11024672      17.73022642  T       0.00882639       0.07982495       0.07351722
O        9.09001227       1.35002574      21.39012440  T       0.00400047       0.00839358       0.04049345
O        5.41993533       2.96010769      18.38959227  T      -0.02096014       0.03516413      -0.13256220
O        4.60020857       3.96990250      20.62993260  T       0.06785372      -0.03171663      -0.02188401
O        7.10984636       2.68009181      20.21021069  T      -0.04998899       0.02990670       0.06859421
O        6.44977188       0.41017276      21.41011877  T      -0.07401892       0.05634164       0.03858881
O        6.63985126       5.24977734      19.38009690  T      -0.04832482      -0.07229192       0.03144425
O        7.90029648       9.80012221      16.73951806  T       0.09619064       0.03960261      -0.15623188
O        3.86978047       7.03985687      16.86010379  T      -0.07135984      -0.04657077       0.03370274
O        3.70021711       9.42001054      21.43000863  T       0.07062397       0.00339440       0.00272960
O        3.20000532       7.95010574      19.09015318  T       0.00177118       0.03443465       0.04982525
O        1.30940009       6.62002893      17.78969660  T      -0.19450063       0.00952225      -0.09859624
O        3.20998847       5.27981734      18.89003295  T      -0.00376815      -0.05924392       0.01060091
O        0.36003437       5.53015450      19.99064295  T       0.01102410       0.05028225       0.20883989
O        1.54971728       7.68976559      21.02035172  T      -0.09176294      -0.07585745       0.11433231
O        4.75035366       8.47009466      21.90027200  T       0.11503604       0.03071765       0.08857867
O        8.01993316       0.21989837      19.38985609  T      -0.02169691      -0.03305333      -0.04678969
O        6.92012356       8.84989449      23.74021035  T       0.04000620      -0.03427235       0.06806659
O        6.20021268       5.74010371      16.87019192  T       0.06904365       0.03379513       0.06235672
O        5.76995415       0.30987730      18.18006158  T      -0.01492204      -0.03998457       0.02006575
O        8.71981401       5.97015647      17.90997920  T      -0.06048887       0.05093639      -0.00673358
O        6.97999121       7.87023843      18.42988739  T      -0.00287470       0.07745354      -0.03662610
O        2.27949439       4.48064919       3.82977774  T      -0.16442223       0.21107261      -0.07194636
O        1.47999717       2.43001530       2.56950867  T      -0.00087203       0.00503284      -0.15999633
O        3.90995366       2.71991990       4.18004766  T      -0.01507628      -0.02608148       0.01544070
O        3.70956881       4.60927792       6.15969413  T      -0.13968178      -0.23430935      -0.09939436
O        1.71970223       2.92991507       5.80014399  T      -0.09675578      -0.02754749       0.04669736
O        4.82015307       1.32007005       5.88948081  T       0.04983711       0.02271643      -0.16843440
O        5.25982646       0.82007413       3.24983642  T      -0.05646593       0.02419872      -0.05321130
O        6.16003096       3.62996026       4.03008321  T       0.01008552      -0.01294502       0.02707467
O        7.07015540       1.33023761       4.62042699  T       0.05045446       0.07743341       0.13891962
O        8.96063200       2.44990352       6.26032034  T       0.20563791      -0.03148994       0.10424913
O        9.54028348       0.41033841       4.70997515  T       0.09228632       0.11007757      -0.00819540
O        0.87025675       9.79000161       2.63967426  T       0.08350810       0.00039231      -0.10590910
O        1.22948018       8.21025608       4.64971162  T      -0.16916699       0.08327907      -0.09383241
O        9.87000000       6.98000000       2.02000000  F       0.00000000       0.00000000       0.00000000
O        5.15024960       6.17975787       4.53015158  T       0.08125456      -0.07880970       0.04935441
O        5.59000000       5.63000000       2.17000000  F       0.00000000       0.00000000       0.00000000
O        7.78002476       5.79015751       3.62991876  T       0.00796988       0.05120382      -0.02641717
O        5.60996684       8.19030529       2.67957974  T      -0.01079751       0.09930447      -0.13679245
O        8.54015543       8.39979597       3.63977123  T       0.05065676      -0.06626331      -0.07438128
O        3.54965688       4.17994271      11.52990064  T      -0.11156773      -0.01864757      -0.03232286
O        1.14002145       4.88978718      11.35008815  T       0.00691487      -0.06912281       0.02866611
O        1.73982479       0.91985821      10.34037620  T      -0.05685250      -0.04603115       0.12206588
O        2.79003915       3.09040750       9.32004248  T       0.01252295       0.13220549       0.01369729
O        3.57964491       0.96023758       8.14038994  T      -0.11522193       0.07727607       0.12675584
O        1.06983603       1.65979032       7.93008856  T      -0.05341425      -0.06817136       0.02881331
O        0.43003388       4.16989408       7.88994319  T       0.01101044      -0.03432147      -0.01847197
O        9.28964269       1.31003155      11.43960115  T      -0.11607414       0.01024480      -0.12973649
O        5.92026387       2.56010451       7.78017311  T       0.08578652       0.03385110       0.05622842
O        5.26022006       4.03002545       9.71004000  T       0.07130998       0.00837984       0.01315593
O        7.34014511       2.44014926      10.03003442  T       0.04728617       0.04845170       0.01121690
O        6.83922810       0.19971158      11.30039947  T      -0.25058199      -0.09348289       0.12950782
O        7.51989162       4.85974483       8.95991458  T      -0.03527060      -0.08289770      -0.02798976
O        8.09003376       9.73027061       6.59977044  T       0.01080736       0.08795792      -0.07440363
O        4.07039726       7.04982208       6.84962897  T       0.12894921      -0.05778098      -0.12038652
O        3.95020127       9.59989322      11.24980741  T       0.06549971      -0.03472007      -0.06269886
O        3.06000443       8.34989248       8.86987338  T       0.00141339      -0.03500636      -0.04117933
O        1.53993166       6.63977609       7.47005266  T      -0.02221139      -0.07285054       0.01702260
O        3.34998022       5.60986046       9.01030208  T      -0.00652171      -0.04508938       0.09812308
O        0.19980786       6.48990511       9.53027093  T      -0.06258530      -0.03106044       0.08777777
O        2.27959657       7.41960648      11.08025872  T      -0.13084834      -0.12777080       0.08405280
O        4.98964380       7.36020011      10.21003044  T      -0.11574775       0.06501324       0.01016656
O        8.17997640       0.04981149       9.20960171  T      -0.00763933      -0.06124944      -0.12937783
O        7.52003332       7.20997147      11.36976664  T       0.01073684      -0.00929725      -0.07595339
O        6.18011733       5.50004120       6.87999987  T       0.03817246       0.01341062      -0.00008142
O        5.81006585       9.89981983       8.02993298  T       0.02131029      -0.05852966      -0.02186449
O        8.93958431       6.08001576       7.09036288  T      -0.13513292       0.00514060       0.11805009
O        7.26985558       7.67007388       8.17003061  T      -0.04703165       0.02399106       0.00996856
O        3.55000000       4.18000000       1.53000000  F       0.00000000       0.00000000       0.00000000
O        1.14000000       4.89000000       1.35000000  F       0.00000000       0.00000000       0.00000000
O        9.29000000       1.31000000       1.44000000  F       0.00000000       0.00000000       0.00000000
O        6.84000000       0.20000000       1.30000000  F       0.00000000       0.00000000       0.00000000
O        3.95000000       9.60000000       1.25000000  F       0.00000000       0.00000000       0.00000000
O        2.28000000       7.42000000       1.08000000  F       0.00000000       0.00000000       0.00000000
O        7.52000000       7.21000000       1.37000000  F       0.00000000       0.00000000       0.00000000
Si       2.10012594       3.97985771      12.31998614  T       0.07188108      -0.08119402      -0.00785484
Si       2.89012076       3.64988650      15.08983904  T       0.06891140      -0.06476514      -0.09194219
Si       0.88991527       1.15002833      11.76973098  T      -0.04848604       0.01609352      -0.15353499
Si       8.27019741       0.95022486      15.60995887  T       0.11273994       0.12845448      -0.02341625
Si       5.41030131       1.99017940      14.42996413  T       0.17216554       0.10250814      -0.02036102
Si       4.78981536       5.94973048      16.08005722  T      -0.10533350      -0.15402300       0.03274081
Si       0.00014059       9.15982665      13.87000793  T       0.08016386      -0.09878838       0.00469502
Si       6.20988440       5.20997757      13.70960028  T      -0.06596367      -0.01293064      -0.22826719
Si       5.42007685       9.76988469      12.06023996  T       0.04370039      -0.06575884       0.13717851
Si       8.39005982       7.03997336      12.73986428  T       0.03409600      -0.01521952      -0.07749931
Si       3.04013273       4.32984512      20.22984970  T       0.07591310      -0.08838968      -0.08565426
Si       2.13976677       1.51952410      19.12972933  T      -0.13305061      -0.27101363      -0.15436072
Si       0.48005580       2.69979596      17.00961138  T       0.03177226      -0.11622191      -0.22192885
Si       4.92000127       1.59987070      17.68968117  T       0.00089757      -0.07381049      -0.18201415
Si       5.95007474       3.76999697      19.66020376  T       0.04258381      -0.00193453       0.11617625
Si       7.63028010       1.18026922      20.65960343  T       0.15981905       0.15364658      -0.22639196
Si       2.57006828       8.73011726      20.38974113  T       0.03885192       0.06683116      -0.14756579
Si       2.84052021       6.67025301      18.12007134  T       0.29644664       0.14434104       0.04071170
Si       1.08002476       6.15996781      21.42957612  T       0.01413238      -0.01853501      -0.24209668
Si       0.20983033       5.57988353      18.39984999  T      -0.09696206      -0.06645879      -0.08534685
Si       6.22946955       9.27973140      22.46990074  T      -0.30286492      -0.15341916      -0.05647653
Si       7.13000040       6.24007003      18.15989923  T       0.00013786       0.03998656      -0.05743166
Si       7.17991931       9.52975244      18.11044299  T      -0.04587260      -0.14127834       0.25245737
Si       2.10000000       3.98000000       2.32000000  F       0.00000000       0.00000000       0.00000000
Si       2.91028104       3.64999021       5.03019692  T       0.16007715      -0.00556687       0.11213328
Si       0.89000000       1.15000000       1.77000000  F       0.00000000       0.00000000       0.00000000
Si       8.35978203       1.04009572       5.59997410  T      -0.12427236       0.05474800      -0.01475221
Si       5.41024589       1.98993958       4.43006140  T       0.14053867      -0.03448704       0.03493944
Si       4.78013554       5.76050423       6.06025742  T       0.07708543       0.28743365       0.14703324
Si       0.00024364       9.15967714       3.87031028  T       0.13920933      -0.18419632       0.17723056
Si       6.20990350       5.20989499       3.70980414  T      -0.05505910      -0.06005059      -0.11193844
Si       5.42000000       9.77000000       2.06000000  F       0.00000000       0.00000000       0.00000000
Si       8.39010422       7.04000796       2.74011846  T       0.05955655       0.00448237       0.06755581
Si       3.71991098       4.28992156       9.89012248  T      -0.05063740      -0.04480241       0.07002839
Si       2.29020872       1.61984411       9.00967935  T       0.11901320      -0.08883470      -0.18286611
Si       0.55964023       2.81013112       6.93998445  T      -0.20552256       0.07471609      -0.00882691
Si       5.02995090       1.19013025       7.45015746  T      -0.02806416       0.07441285       0.08972222
Si       6.58982899       3.44008048       9.03995335  T      -0.09752702       0.04598131      -0.02656136
Si       7.93031990       1.01994564      10.49996059  T       0.18216594      -0.03133375      -0.02241352
Si       3.50029845       8.23007589      10.41999903  T       0.17021613       0.04316143      -0.00044036
Si       3.06953701       6.90008604       8.07984421  T      -0.26428625       0.04895905      -0.08908160
Si       0.91021800       6.44011271      10.97998862  T       0.12419631       0.06427836      -0.00614012
Si       0.20039342       5.79004009       8.09940105  T       0.22471839       0.02295023      -0.34185533
Si       5.90999775       7.07981057      11.49035366  T      -0.00136840      -0.10806331       0.20191502
Si       7.41013713       6.06014005       7.84966212  T       0.07830255       0.07988779      -0.19282141
Si       7.31019790       9.31989111       7.93049734  T       0.11319656      -0.06214259       0.28384074
Si       7.93000000       1.02000000       0.50000000  F       0.00000000       0.00000000       0.00000000
Si       0.91000000       6.44000000       0.98000000  F       0.00000000       0.00000000       0.00000000
Si       5.91000000       7.08000000       1.49000000  F       0.00000000       0.00000000       0.00000000
C        4.99934133       5.00011596      26.63239666  T      -0.15993724       0.02852402     -13.15866870
F        5.79157370       6.03161579      26.63240435  T       0.07047369       0.09855316     -20.81076104
F        5.79162524       3.96831907      26.63240605  T       0.09055321      -0.12391345     -20.81014616
153
Lattice="10.0 0.0 0.0 0.0 10.0 0.0 0.0 0.0 43.74" Properties=species:S:1:pos:R:3:move_mask:L:1:momenta:R:3 etch=trj_CF2_30eV_case1 idx=0 index=0 source=trj_CF2_30eV_case1/0000/OUTCAR converged=T time_fs=2.0 pbc="T T T"
O        2.27903308       4.48187548      13.83007964  T      -0.15676848       0.30408878       0.01375064
O        1.48031066       2.43105846      12.56867010  T       0.04969157       0.17058132      -0.21652622
O        3.90928908       2.71926516      14.18067119  T      -0.11531996      -0.11977495       0.10925260
O        3.82033088       4.56096263      16.06083619  T       0.05250679       0.15496570       0.13518181
O        1.64946722       2.88967044      15.79160473  T      -0.08489277      -0.05282770       0.25961093
O        5.09932351       1.64024339      16.04204232  T      -0.10951752       0.03997022       0.32843476
O        5.25862884       0.82056039      13.24995102  T      -0.22298543       0.09152108      -0.00729739
O        6.15994434       3.62931397      14.03038560  T      -0.00903498      -0.11065815       0.06241847
O        7.07042729       1.33056682      14.62091677  T       0.06854256       0.09260559       0.14856382
O        9.06936155       2.28947553      16.26079744  T      -0.10326425      -0.08423449       0.13018011
O        9.53970466       0.41075674      14.71141480  T      -0.04605721       0.12078726       0.22768334
O        0.87059000       9.78877878      12.64032414  T       0.09586636      -0.19659064       0.05142823
O        1.22846756       8.21067889      14.64936468  T      -0.24857132       0.10985044      -0.10274734
O        9.86899185       6.98039234      12.02257733  T      -0.15994139       0.06220501       0.41612833
O        5.15077297       6.18008508      14.53066403  T       0.12585373       0.01366387       0.10798220
O        5.59100843       5.62947068      12.17061867  T       0.16339519      -0.08610049       0.09986692
O        7.78020450       5.79045949      13.63018334  T       0.03250247       0.07447410       0.02975480
O        5.60959935       8.19246966      12.67891517  T      -0.06488341       0.39917351      -0.17584826
O        8.54109933       8.39965528      13.63987525  T       0.17822298      -0.05582102      -0.02014171
O        2.43962299       5.21976349      21.43091438  T      -0.06079265      -0.03889071       0.14802498
O        0.21941407       6.18979633      22.75072629  T      -0.09474050      -0.03315939       0.11723256
O        1.83050458       0.12073932      19.96057301  T       0.08175465       0.11945519       0.09346331
O        2.16140160       2.91331425      19.87203961  T       0.22687613       0.53096877       0.32781460
O        3.43102068       1.25042021      18.20967726  T       0.16362689       0.06811722      -0.05139985
O        0.91974092       1.48104938      18.01031752  T      -0.04240121       0.17026976       0.05178178
O        0.40010856       4.11096911      17.73089786  T       0.01774388       0.15389471       0.14450338
O        9.09004932       1.35010326      21.39049660  T       0.00810163       0.01688934       0.08066164
O        5.41974482       2.96043346      18.38837749  T      -0.04077833       0.07119790      -0.26240068
O        4.60083129       3.96961147      20.62973274  T       0.13471966      -0.06295461      -0.04301210
O        7.10938752       2.68036715      20.21084143  T      -0.09928120       0.05977444       0.13674844
O        6.44909704       0.41069322      21.41047162  T      -0.14495900       0.11340406       0.07602732
O        6.63940925       5.24911721      19.38038358  T      -0.09527897      -0.14203914       0.06157169
O        7.90117324       9.80048208      16.73809704  T       0.18828126       0.07701808      -0.30444948
O        3.86912690       7.03942926      16.86041159  T      -0.14108583      -0.09256352       0.06623243
O        3.70086533       9.42004075      21.43003201  T       0.14027847       0.00630477       0.00467615
O        3.20002249       7.95042259      19.09061037  T       0.00392942       0.06874391       0.09889747
O        1.30763038       6.62011891      17.78879416  T      -0.37929841       0.02007704      -0.19467779
O        3.20995349       5.27927781      18.89012747  T      -0.00766271      -0.11574357       0.01979778
O        0.36013188       5.53061646      19.99255227  T       0.02022976       0.10005953       0.41137604
O        1.54887999       7.68907860      21.02139908  T      -0.18001160      -0.14648022       0.22615657
O        4.75140854       8.47037519      21.90108623  T       0.22798348       0.06040309       0.17639807
O        8.01973526       0.21959529      19.38942737  T      -0.04251869      -0.06550240      -0.09258532
O        6.92048618       8.84958135      23.74082672  T       0.07738173      -0.06741278       0.13141346
O        6.20084295       5.74041516      16.87076236  T       0.13556305       0.06768593       0.12298025
O        5.76981710       0.30950873      18.18024651  T      -0.02967213      -0.08012206       0.04019573
O        8.71925930       5.97062470      17.90991821  T      -0.11990950       0.10148181      -0.01300130
O        6.97996448       7.87094667      18.42955136  T      -0.00586704       0.15261567      -0.07268119
O        2.27798678       4.48258358       3.82912576  T      -0.32585716       0.41787754      -0.13911575
O        1.47999031       2.43006282       2.56803657  T      -0.00121242       0.01059565      -0.31937412
O        3.90981527       2.71967998       4.18018790  T      -0.02994867      -0.05204070       0.03000050
O        3.70830064       4.60714141       6.15878454  T      -0.27114412      -0.45898593      -0.19617120
O        1.71881690       2.92966419       5.80056919  T      -0.19092210      -0.05382051       0.09120248
O        4.82061141       1.32027687       5.88794587  T       0.09938922       0.04435524      -0.32953622
O        5.25930802       0.82029814       3.24934818  T      -0.11221689       0.04891996      -0.10560537
O        6.16012384       3.62984103       4.03033183  T       0.02016935      -0.02589770       0.05382593
O        7.07061610       1.33095142       4.62170225  T       0.09911648       0.15518031       0.27598250
O        8.96252013       2.44961205       6.26127795  T       0.40870514      -0.06364741       0.20738456
O        9.54113198       0.41134835       4.70989733  T       0.18394007       0.21843518      -0.01744874
O        0.87102276       9.79000214       2.63870367  T       0.16563725      -0.00060863      -0.20966296
O        1.22792623       8.21101969       4.64885010  T      -0.33653053       0.16503992      -0.18647399
O        9.87000000       6.98000000       2.02000000  F       0.00000000       0.00000000       0.00000000
O        5.15099664       6.17903362       4.53060557  T       0.16193971      -0.15692321       0.09847042
O        5.59000000       5.63000000       2.17000000  F       0.00000000       0.00000000       0.00000000
O        7.78009592       5.79062657       3.62967660  T       0.01492798       0.10127942      -0.05232546
O        5.60986754       8.19121641       2.67832258  T      -0.02153201       0.19706586      -0.27239778
O        8.54062253       8.39919044       3.63908958  T       0.10157719      -0.13039482      -0.14724372
O        3.54863427       4.17977130      11.52960397  T      -0.22093205      -0.03714938      -0.06419456
O        1.14008345       4.88915539      11.35035098  T       0.01307103      -0.13608478       0.05680277
O        1.73930648       0.91943797      10.34148900  T      -0.11132347      -0.09040207       0.23900067
O        2.79014906       3.09161242       9.32016529  T       0.02259841       0.25871915       0.02588677
O        3.57859437       0.96094649       8.14155094  T      -0.22565235       0.15330266       0.25063758
O        1.06934415       1.65916560       7.93035311  T      -0.10681070      -0.13494519       0.05726677
O        0.43013469       4.16958230       7.88977391  T       0.02175703      -0.06669787      -0.03656565
O        9.28858127       1.31012513      11.43841083  T      -0.22873371       0.02014503      -0.25744926
O        5.92104988       2.56041174       7.78068710  T       0.16974797       0.06566241       0.11072085
O        5.26086797       4.03010470       9.71016408  T       0.13864108       0.01769823       0.02762955
O        7.34058091       2.44059146      10.03013781  T       0.09471614       0.09509201       0.02247173
O        6.83694073       0.19886166      11.30157761  T      -0.49197856      -0.18200406       0.25244820
O        7.51956760       4.85898670       8.95965297  T      -0.07018130      -0.16339771      -0.05771529
O        8.09012886       9.73107608       6.59909403  T       0.01961466       0.17385261      -0.14483245
O        4.07157401       7.04929412       6.84853149  T       0.25301768      -0.11367038      -0.23570885
O        3.95080297       9.59957500      11.24923089  T       0.13031746      -0.06874703      -0.12499036
O        3.06001677       8.34957054       8.86949572  T       0.00252054      -0.06981323      -0.08164544
O        1.53972833       6.63910727       7.47020629  T      -0.04386681      -0.14475463       0.03262042
O        3.34991835       5.60945377       9.01119915  T      -0.01385734      -0.08631611       0.19327253
O        0.19923160       6.48961558       9.53106809  T      -0.12511935      -0.06369424       0.17049341
O        2.27840489       7.41843964      11.08102747  T      -0.25566575      -0.25109162       0.16570210
O        4.98858453       7.36079474      10.21012988  T      -0.22846883       0.12816985       0.02295674
O        8.17990719       0.04925114       9.20841882  T      -0.01475767      -0.12081912      -0.25486902
O        7.52012946       7.20988574      11.36906865  T       0.02023307      -0.01864563      -0.15123225
O        6.18046770       5.50016446       6.87999818  T       0.07581007       0.02671209      -0.00059072
O        5.81025883       9.89928458       8.02973084  T       0.04114199      -0.11535634      -0.04408276
O        8.93834647       6.08006327       7.09144627  T      -0.26724836       0.01035962       0.23439191
O        7.26942280       7.67029305       8.17012233  T      -0.09390388       0.04718133       0.01989990
O        3.55000000       4.18000000       1.53000000  F       0.00000000       0.00000000       0.00000000
O        1.14000000       4.89000000       1.35000000  F       0.00000000       0.00000000       0.00000000
O        9.29000000       1.31000000       1.44000000  F       0.00000000       0.00000000       0.00000000
O        6.84000000       0.20000000       1.30000000  F       0.00000000       0.00000000       0.00000000
O        3.95000000       9.60000000       1.25000000  F       0.00000000       0.00000000       0.00000000
O        2.28000000       7.42000000       1.08000000  F       0.00000000       0.00000000       0.00000000
O        7.52000000       7.21000000       1.37000000  F       0.00000000       0.00000000       0.00000000
Si       2.10050125       3.97943405      12.31994593  T       0.14233533      -0.16056347      -0.01491144
Si       2.89048036       3.64954861      15.08935809  T       0.13629750      -0.12803112      -0.18276322
Si       0.88966042       1.15011136      11.76892956  T      -0.09735298       0.03108333      -0.30384420
Si       8.27078689       0.95089704      15.60983744  T       0.22390370       0.25554225      -0.04570397
Si       5.41120271       1.99071610      14.42985934  T       0.34288751       0.20415409      -0.03910756
Si       4.78926614       5.94892377      16.08022933  T      -0.20797445      -0.30698848       0.06575949
Si       0.00055801       9.15931295      13.87003472  T       0.15783191      -0.19394642       0.01110006
Si       6.20954024       5.20990838      13.70840689  T      -0.13041446      -0.02693513      -0.45322403
Si       5.42030280       9.76954213      12.06095909  T       0.08476526      -0.12958084       0.27392550
Si       8.39023716       7.03989368      12.73945923  T       0.06696710      -0.03031021      -0.15377916
Si       3.04053122       4.32938378      20.22940424  T       0.15202161      -0.17489059      -0.16821251
Si       2.13907303       1.51811724      19.12892506  T      -0.26270496      -0.53019972      -0.30434086
Si       0.48022068       2.69919228      17.00845108  T       0.06211250      -0.22765693      -0.44068966
Si       4.92000827       1.59948515      17.68873041  T       0.00361234      -0.14629365      -0.36074117
Si       5.95029608       3.76998421      19.66080867  T       0.08353208      -0.00592782       0.22871785
Si       7.63111367       1.18107124      20.65842078  T       0.31575485       0.30408513      -0.44877915
Si       2.57026954       8.73046490      20.38897317  T       0.07566572       0.13130145      -0.29020638
Si       2.84206175       6.67100572      18.12028384  T       0.58205149       0.28507833       0.08056699
Si       1.08009878       6.15986885      21.42830965  T       0.02819955      -0.03843740      -0.48134216
Si       0.20932247       5.57953683      18.39940796  T      -0.19326842      -0.13135557      -0.16616801
Si       6.22788706       9.27892865      22.46960873  T      -0.60062068      -0.30517504      -0.10949896
Si       7.12999990       6.24027902      18.15960056  T      -0.00069819       0.07934638      -0.11276534
Si       7.17968219       9.52901506      18.11175593  T      -0.08894761      -0.27954111       0.49578798
Si       2.10000000       3.98000000       2.32000000  F       0.00000000       0.00000000       0.00000000
Si       2.91111242       3.64996137       5.03077890  T       0.31346844      -0.01085603       0.21927301
Si       0.89000000       1.15000000       1.77000000  F       0.00000000       0.00000000       0.00000000
Si       8.35913506       1.04038308       5.59989748  T      -0.24457830       0.10960313      -0.02889021
Si       5.41098226       1.98975953       4.43024244  T       0.28034067      -0.06827704       0.06808456
Si       4.78053437       5.76200012       6.06102649  T       0.14976623       0.56530624       0.29222546
Si       0.00097241       9.15871651       3.87123742  T       0.27717170      -0.36385603       0.35235439
Si       6.20961628       5.20957991       3.70921770  T      -0.10882637      -0.12013136      -0.22322849
Si       5.42000000       9.77000000       2.06000000  F       0.00000000       0.00000000       0.00000000
Si       8.39041614       7.04003057       2.74047039  T       0.11869488       0.00824835       0.13313791
Si       3.71964890       4.28968721       9.89048971  T      -0.09844056      -0.08905801       0.13992973
Si       2.29082853       1.61938217       9.00872660  T       0.23439623      -0.17440952      -0.36048180
Si       0.55856477       2.81051960       6.93993903  T      -0.40884749       0.14665975      -0.01694837
Si       5.02980388       1.19051968       7.45062394  T      -0.05594934       0.14805759       0.17610254
Si       6.58932089       3.44032119       9.03981551  T      -0.19223402       0.09155050      -0.05192679
Si       7.93126542       1.01977799      10.49984460  T       0.35627274      -0.06524350      -0.04357138
Si       3.50118548       8.23029923      10.41999824  T       0.33570703       0.08387570       0.00032320
Si       3.06815675       6.90033967       8.07937699  T      -0.52361250       0.09536746      -0.17805411
Si       0.91086334       6.44044757      10.97996131  T       0.24344991       0.12667180      -0.00839860
Si       0.20156891       5.79016081       8.09761627  T       0.44669971       0.04614828      -0.67682720
Si       5.90998950       7.07924713      11.49140868  T      -0.00358564      -0.21336044       0.40044289
Si       7.41054636       6.06055653       7.84865574  T       0.15535305       0.15769055      -0.38151412
Si       7.31079216       9.31956673       7.93197899  T       0.22670393      -0.12299277       0.56177306
Si       7.93000000       1.02000000       0.50000000  F       0.00000000       0.00000000       0.00000000
Si       0.91000000       6.44000000       0.98000000  F       0.00000000       0.00000000       0.00000000
Si       5.91000000       7.08000000       1.49000000  F       0.00000000       0.00000000       0.00000000
C        4.99741116       5.00046674      26.52477524  T      -0.30929338       0.05712215     -13.16074638
F        5.79210998       6.03236940      26.52480577  T       0.13563304       0.19153252     -20.81116984
F        5.79231785       3.96736812      26.52481151  T       0.17593438      -0.24239899     -20.81031958
153
Lattice="10.0 0.0 0.0 0.0 10.0 0.0 0.0 0.0 43.74" Properties=species:S:1:pos:R:3:move_mask:L:1:momenta:R:3 etch=trj_CF2_30eV_case1 idx=0 index=0 source=trj_CF2_30eV_case1/0000/OUTCAR converged=T time_fs=3.0 pbc="T T T"
O        2.27783646       4.48419669      13.83019204  T      -0.23255746       0.45112804       0.02335692
O        1.48068386       2.43235124      12.56700918  T       0.07127960       0.24933974      -0.32446262
O        3.90840835       2.71834519      14.18150896  T      -0.17126107      -0.17996950       0.16359679
O        3.82072136       4.56213542      16.06186451  T       0.07377049       0.22584978       0.19912721
O        1.64883271       2.88927264      15.79358113  T      -0.12054455      -0.07619376       0.38302005
O        5.09848904       1.64055307      16.04452488  T      -0.16186601       0.06112076       0.47744676
O        5.25692070       0.82126491      13.24990105  T      -0.33321369       0.13813166      -0.00854304
O        6.15987528       3.62847446      14.03086111  T      -0.01344178      -0.16209257       0.09222057
O        7.07094388       1.33128004      14.62205009  T       0.09904732       0.13991366       0.22011846
O        9.06857555       2.28883977      16.26179910  T      -0.15230135      -0.12208098       0.19630501
O        9.53936953       0.41166172      14.71313748  T      -0.06177004       0.17241841       0.33168381
O        0.87132361       9.78729079      12.64070662  T       0.14294720      -0.28661063       0.07227594
O        1.22656926       8.21151533      14.64858279  T      -0.36910738       0.16212928      -0.15146165
O        9.86780248       6.98085463      12.02573818  T      -0.22471954       0.08729224       0.61114870
O        5.15173844       6.18018816      14.53149108  T       0.18862394       0.01977588       0.16130187
O        5.59225463       5.62881096      12.17137686  T       0.24197772      -0.12872817       0.14649015
O        7.78044671       5.79102776      13.63041067  T       0.04586736       0.11040029       0.04421754
O        5.60910479       8.19550517      12.67757335  T      -0.09596655       0.58756196      -0.26067388
O        8.54245956       8.39922979      13.63972223  T       0.26431703      -0.08257496      -0.02959167
O        2.43916209       5.21946179      21.43204287  T      -0.08889285      -0.05962979       0.21909812
O        0.21869308       6.18954195      22.75161664  T      -0.13968268      -0.04970132       0.17211889
O        1.83112814       0.12164737      19.96129155  T       0.12108536       0.17570464       0.14070129
O        2.16312988       2.91731057      19.87451649  T       0.33514801       0.76516980       0.47623755
O        3.43225296       1.25094004      18.20929323  T       0.23607059       0.10100509      -0.07293680
O        0.91941365       1.48235025      18.01071546  T      -0.06435371       0.25306154       0.07788236
O        0.40024528       4.11211497      17.73199137  T       0.02683210       0.21681272       0.21058724
O        9.09011217       1.35023351      21.39111360  T       0.01242120       0.02558331       0.12017338
O        5.41943887       2.96098511      18.38638042  T      -0.05837681       0.10887463      -0.38693069
O        4.60185899       3.96913130      20.62940730  T       0.19959513      -0.09324461      -0.06265479
O        7.10863004       2.68082558      20.21188816  T      -0.14713462       0.08953430       0.20402350
O        6.44800332       0.41156786      21.41104798  T      -0.20996247       0.17180993       0.11121168
O        6.63868647       5.24804278      19.38084798  T      -0.13954841      -0.20681170       0.08911310
O        7.90259326       9.80105984      16.73580930  T       0.27249853       0.11022792      -0.43727728
O        3.86805428       7.03872246      16.86091256  T      -0.20757113      -0.13741467       0.09641095
O        3.70193622       9.42008598      21.43006334  T       0.20817301       0.00818592       0.00521398
O        3.20005506       7.95094937      19.09136468  T       0.00686377       0.10279544       0.14647165
O        1.30477839       6.62027925      17.78731553  T      -0.54552113       0.03260260      -0.28586918
O        3.20989391       5.27840642      18.89027080  T      -0.01179966      -0.16687815       0.02626451
O        0.36027583       5.53138115      19.99567059  T       0.02581772       0.14879371       0.60157435
O        1.54752002       7.68798649      21.02311936  T      -0.26142820      -0.20693401       0.33310646
O        4.75314453       8.47083291      21.90243413  T       0.33646089       0.08826772       0.26222427
O        8.01941447       0.21909647      19.38872310  T      -0.06156460      -0.09669407      -0.13636238
O        6.92106381       8.84907106      23.74180660  T       0.10959925      -0.09827646       0.18570841
O        6.20186772       5.74093515      16.87169540  T       0.19711120       0.10173686       0.18016535
O        5.76959046       0.30889292      18.18055536  T      -0.04407896      -0.12054381       0.06043854
O        8.71834577       5.97140107      17.90982131  T      -0.17717368       0.15123658      -0.01835235
O        6.97991871       7.87210368      18.42899702  T      -0.00909929       0.22322636      -0.10764332
O        2.27550430       4.48576440       3.82808714  T      -0.48149204       0.61637743      -0.19713306
O        1.47998430       2.43014743       2.56558942  T      -0.00049973       0.01721742      -0.47750573
O        3.90958669       2.71928136       4.18041273  T      -0.04441867      -0.07775449       0.04284046
O        3.70626996       4.60367793       6.15729552  T      -0.38672163      -0.66496001      -0.28762698
O        1.71736758       2.92925897       5.80125569  T      -0.28003702      -0.07760995       0.13145162
O        4.82137234       1.32061063       5.88546185  T       0.14834334       0.06388062      -0.47635867
O        5.25845126       0.82067679       3.24854278  T      -0.16654694       0.07466273      -0.15638433
O        6.16027862       3.62964222       4.03074291  T       0.03025093      -0.03887250       0.07993348
O        7.07136564       1.33214429       4.62380873  T       0.14422194       0.23354958       0.40935214
O        8.96564062       2.44911944       6.26286254  T       0.60659424      -0.09713364       0.30827635
O        9.54253963       0.41301414       4.70975698  T       0.27430184       0.32342806      -0.02873913
O        0.87228547       9.78998892       2.63710787  T       0.24507930      -0.00432113      -0.30920808
O        1.22535495       8.21227668       4.64742656  T      -0.50019798       0.24369675      -0.27667054
O        9.87000000       6.98000000       2.02000000  F       0.00000000       0.00000000       0.00000000
O        5.15223589       6.17783363       4.53135983  T       0.24148722      -0.23366031       0.14712961
O        5.59000000       5.63000000       2.17000000  F       0.00000000       0.00000000       0.00000000
O        7.78020425       5.79139685       3.62927817  T       0.01990394       0.14912649      -0.07723148
O        5.60970269       8.19271917       2.67623948  T      -0.03213652       0.29174410      -0.40562995
O        8.54140371       8.39820294       3.63796898  T       0.15301781      -0.19030320      -0.21709426
O        3.54695242       4.17948712      11.52911411  T      -0.32592052      -0.05535658      -0.09517106
O        1.14017910       4.88812432      11.35078364  T       0.01774877      -0.19881333       0.08389723
O        1.73846679       0.91875429      10.34329164  T      -0.16113082      -0.13158090       0.34590473
O        2.79030751       3.09356307       9.32035469  T       0.02792630       0.37417166       0.03513019
O        3.57689232       0.96211517       8.14345660  T      -0.32659014       0.22680837       0.36881304
O        1.06852459       1.65813858       7.93079040  T      -0.16014870      -0.19897852       0.08502385
O        0.43030005       4.16908246       7.88949562  T       0.03199208      -0.09523741      -0.05391842
O        9.28684705       1.31027763      11.43644763  T      -0.33461820       0.02938079      -0.38113213
O        5.92234133       2.56090312       7.78152611  T       0.25011823       0.09348381       0.16180205
O        5.26190757       4.03024627       9.71038422  T       0.19823315       0.02883852       0.04467629
O        7.34130864       2.44131013      10.03031045  T       0.14240092       0.13820338       0.03377282
O        6.83322141       0.19749514      11.30347482  T      -0.71549449      -0.26095576       0.36265124
O        7.51903123       4.85774745       8.95919941  T      -0.10437571      -0.23921193      -0.09081029
O        8.09026720       9.73239763       6.59800686  T       0.02457067       0.25571811      -0.20754495
O        4.07348563       7.04843371       6.84675375  T       0.36747413      -0.16569678      -0.34110169
O        3.95179886       9.59905172      11.24827420  T       0.19378625      -0.10139027      -0.18646898
O        3.06003422       8.34903598       8.86887355  T       0.00302326      -0.10422957      -0.12070564
O        1.53939516       6.63800230       7.47044770  T      -0.06439927      -0.21474506       0.04534434
O        3.34980700       5.60881500       9.01266416  T      -0.02278332      -0.12004428       0.28262616
O        0.19827182       6.48911720       9.53234564  T      -0.18748741      -0.09934148       0.24343420
O        2.27647985       7.41654002      11.08228448  T      -0.36870704      -0.36571112       0.24271188
O        4.98684985       7.36176685      10.21032212  T      -0.33523093       0.18764029       0.04083692
O        8.17979728       0.04833433       9.20648691  T      -0.02078270      -0.17705973      -0.37266815
O        7.52027711       7.20974232      11.36791224  T       0.02730871      -0.02810056      -0.22515770
O        6.18104617       5.50036880       6.87999100  T       0.11238209       0.03980430      -0.00194109
O        5.81056554       9.89840976       8.02939037  T       0.05811696      -0.16885180      -0.06698531
O        8.93631439       6.08014326       7.09323447  T      -0.39328399       0.01573396       0.34732440
O        7.26870314       7.67065018       8.17027483  T      -0.14045436       0.06878382       0.02975945
O        3.55000000       4.18000000       1.53000000  F       0.00000000       0.00000000       0.00000000
O        1.14000000       4.89000000       1.35000000  F       0.00000000       0.00000000       0.00000000
O        9.29000000       1.31000000       1.44000000  F       0.00000000       0.00000000       0.00000000
O        6.84000000       0.20000000       1.30000000  F       0.00000000       0.00000000       0.00000000
O        3.95000000       9.60000000       1.25000000  F       0.00000000       0.00000000       0.00000000
O        2.28000000       7.42000000       1.08000000  F       0.00000000       0.00000000       0.00000000
O        7.52000000       7.21000000       1.37000000  F       0.00000000       0.00000000       0.00000000
Si       2.10111845       3.97873854      12.31988361  T       0.20993849      -0.23630922      -0.02033710
Si       2.89107086       3.64899417      15.08856307  T       0.20066660      -0.18832333      -0.27133920
Si       0.88923348       1.15024341      11.76761255  T      -0.14696363       0.04393662      -0.44780051
Si       8.27176018       0.95200938      15.60964165  T       0.33192504       0.37989925      -0.06573126
Si       5.41269667       1.99160559      14.42969402  T       0.51074846       0.30409309      -0.05471236
Si       4.78836640       5.94758547      16.08051782  T      -0.30529915      -0.45779186       0.09934381
Si       0.00123927       9.15847777      13.87008914  T       0.23061094      -0.28200835       0.02076061
Si       6.20897543       5.20978684      13.70643728  T      -0.19186983      -0.04305889      -0.67150771
Si       5.42066403       9.76898257      12.06215514  T       0.12056418      -0.18946422       0.40982579
Si       8.39052557       7.03976163      12.73879126  T       0.09737822      -0.04514081      -0.22762044
Si       3.04119664       4.32862595      20.22867974  T       0.22861647      -0.25755244      -0.24466473
Si       2.13793653       1.51584023      19.12760957  T      -0.38562063      -0.76670596      -0.44602637
Si       0.48048716       2.69821366      17.00653564  T       0.08961157      -0.32982442      -0.65316797
Si       4.92003041       1.59885023      17.68716506  T       0.00986144      -0.21617340      -0.53282208
Si       5.95065555       3.76995118      19.66179584  T       0.12129288      -0.01386691       0.33413363
Si       7.63248039       1.18238941      20.65647277  T       0.46401582       0.44824377      -0.66336374
Si       2.57059322       8.73103071      20.38772168  T       0.10851767       0.19120110      -0.42321822
Si       2.84456874       6.67223936      18.12063317  T       0.84675518       0.41872329       0.11884513
Si       1.08022206       6.15969604      21.42621526  T       0.04230393      -0.06099052      -0.71497412
Si       0.20847983       5.57896812      18.39869717  T      -0.28827972      -0.19312350      -0.23829776
Si       6.22527944       9.27760016      22.46914261  T      -0.88812120      -0.45376509      -0.15538988
Si       7.12999341       6.24062374      18.15911500  T      -0.00345871       0.11750223      -0.16392954
Si       7.17930293       9.52780349      18.11389167  T      -0.12673440      -0.41191756       0.72145579
Si       2.10000000       3.98000000       2.32000000  F       0.00000000       0.00000000       0.00000000
Si       2.91245939       3.64991468       5.03172002  T       0.45374638      -0.01579136       0.31662818
Si       0.89000000       1.15000000       1.77000000  F       0.00000000       0.00000000       0.00000000
Si       8.35807983       1.04086258       5.59977337  T      -0.35700036       0.16462145      -0.04179090
Si       5.41220525       1.98946351       4.43053377  T       0.41866501      -0.10066667       0.09768443
Si       4.78117412       5.76443815       6.06229739  T       0.21423111       0.82456528       0.43362336
Si       0.00217959       9.15714183       3.87277035  T       0.41250982      -0.53450615       0.52323550
Si       6.20914505       5.20905462       3.70824409  T      -0.16005205      -0.18026421      -0.33321275
Si       5.42000000       9.77000000       2.06000000  F       0.00000000       0.00000000       0.00000000
Si       8.39093357       7.04006410       2.74104549  T       0.17699771       0.01059326       0.19481699
Si       3.71922839       4.28929981       9.89110097  T      -0.14076636      -0.13220473       0.20953471
Si       2.29184035       1.61863115       9.00716905  T       0.34249563      -0.25356014      -0.52780831
Si       0.55678522       2.81115105       6.93986742  T      -0.60772125       0.21316974      -0.02367721
Si       5.02955999       1.19116422       7.45138222  T      -0.08341278       0.22015264       0.25602924
Si       6.58849040       3.44071996       9.03959273  T      -0.28137697       0.13628775      -0.07491572
Si       7.93279483       1.01948394      10.49965829  T       0.51469270      -0.10399598      -0.06248329
Si       3.50263662       8.23065744      10.42000378  T       0.49198387       0.11988873       0.00335308
Si       3.06588506       6.90074771       8.07859908  T      -0.77315540       0.13682892      -0.26668577
Si       0.91191035       6.44099460      10.97993800  T       0.35303622       0.18523345      -0.00324792
Si       0.20351200       5.79036329       8.09468142  T       0.66311973       0.06969358      -0.99830968
Si       5.90997089       7.07832411      11.49314748  T      -0.00742685      -0.31318302       0.59232961
Si       7.41122102       6.06123863       7.84700235  T       0.22983264       0.23142533      -0.56206238
Si       7.31178416       9.31903353       7.93441420  T       0.34063062      -0.18133534       0.82807699
Si       7.93000000       1.02000000       0.50000000  F       0.00000000       0.00000000       0.00000000
Si       0.91000000       6.44000000       0.98000000  F       0.00000000       0.00000000       0.00000000
Si       5.91000000       7.08000000       1.49000000  F       0.00000000       0.00000000       0.00000000
C        4.99433095       5.00104644      26.41713773  T      -0.43973522       0.08426540     -13.16269512
F        5.79296186       6.03358101      26.41720607  T       0.19192202       0.27505018     -20.81121594
F        5.79342843       3.96583002      26.41721568  T       0.25139209      -0.35012106     -20.81064526
153
Lattice="10.0 0.0 0.0 0.0 10.0 0.0 0.0 0.0 43.74" Properties=species:S:1:pos:R:3:move_mask:L:1:momenta:R:3 etch=trj_CF2_30eV_case1 idx=0 index=0 source=trj_CF2_30eV_case1/0000/OUTCAR converged=T time_fs=4.0 pbc="T T T"
O        2.27618331       4.48740359      13.83037227  T      -0.30530658       0.59225698       0.03599088
O        1.48117865       2.43410553      12.56468686  T       0.08908670       0.32049641      -0.43194130
O        3.90719008       2.71705462      14.18267925  T      -0.22515031      -0.24051454       0.21753851
O        3.82122554       4.56372094      16.06327317  T       0.08921248       0.28895542       0.25884282
O        1.64800233       2.88874160      15.79629330  T      -0.14823796      -0.09604483       0.49883302
O        5.09734136       1.64099645      16.04787070  T      -0.21138747       0.08359742       0.60862010
O        5.25454019       0.82225829      13.24985134  T      -0.44191525       0.18565799      -0.00707541
O        6.15977954       3.62733238      14.03151476  T      -0.01771723      -0.20895978       0.12034213
O        7.07163522       1.33228701      14.62361356  T       0.12524425       0.18834864       0.28851488
O        9.06749718       2.28798604      16.26321010  T      -0.19834454      -0.15495476       0.26357653
O        9.53896229       0.41285491      14.71546596  T      -0.06910147       0.21418149       0.42443428
O        0.87234326       9.78527768      12.64120096  T       0.18897862      -0.36714504       0.08757696
O        1.22394388       8.21266358      14.64751095  T      -0.48514213       0.21122384      -0.19700300
O        9.86626581       6.98145120      12.03005309  T      -0.27216773       0.10561340       0.79128347
O        5.15308879       6.18032621      14.53264301  T       0.25122605       0.02499802       0.21374984
O        5.59397253       5.62789101      12.17240971  T       0.31681933      -0.17083342       0.18907595
O        7.78076128       5.79181220      13.63072527  T       0.05588704       0.14480914       0.05814309
O        5.60842409       8.19965860      12.67572159  T      -0.12541767       0.76250174      -0.34170722
O        8.54433799       8.39864385      13.63951319  T       0.34680655      -0.10802011      -0.03836571
O        2.43853707       5.21902835      21.43359887  T      -0.11408168      -0.08189683       0.28709820
O        0.21770426       6.18918605      22.75283136  T      -0.18180738      -0.06623988       0.22260740
O        1.83198794       0.12288907      19.96230186  T       0.15861459       0.22792245       0.18854344
O        2.16550491       2.92264237      19.87785422  T       0.43716015       0.96427906       0.60741969
O        3.43389872       1.25165782      18.20879083  T       0.29774556       0.13251629      -0.08970449
O        0.91894893       1.48415150      18.01127419  T      -0.08724144       0.33311424       0.10415668
O        0.40043845       4.11360089      17.73347027  T       0.03613721       0.26387289       0.26969012
O        9.09020236       1.35041793      21.39197031  T       0.01701196       0.03455092       0.15868741
O        5.41903412       2.96177466      18.38364099  T      -0.07279359       0.14878980      -0.50382787
O        4.60327646       3.96846914      20.62896754  T       0.26151201      -0.12216412      -0.08014670
O        7.10758496       2.68146620      20.21334417  T      -0.19283617       0.11910409       0.26999607
O        6.44653509       0.41280615      21.41183123  T      -0.26653900       0.23189028       0.14329875
O        6.63770319       5.24659159      19.38147064  T      -0.17992492      -0.26437667       0.11292445
O        7.90449800       9.80182416      16.73276927  T       0.34565300       0.13750020      -0.54847550
O        3.86658736       7.03774516      16.86158864  T      -0.26923919      -0.18058211       0.12305163
O        3.70341685       9.42013832      21.43009231  T       0.27363815       0.00853228       0.00381615
O        3.20010905       7.95168403      19.09240455  T       0.01098684       0.13642745       0.19176939
O        1.30098173       6.62052452      17.78529738  T      -0.68582813       0.04786641      -0.37006811
O        3.20980798       5.27724359      18.89044247  T      -0.01625505      -0.21026379       0.02882609
O        0.36043859       5.53244030      19.99990441  T       0.02603425       0.19584623       0.77372607
O        1.54568879       7.68656581      21.02547576  T      -0.33300377      -0.25272615       0.43298960
O        4.75552681       8.47145332      21.90430089  T       0.43806142       0.11315778       0.34531171
O        8.01898437       0.21841161      19.38775872  T      -0.07796836      -0.12598896      -0.17713494
O        6.92181783       8.84838125      23.74308217  T       0.13446150      -0.12569589       0.22707197
O        6.20324940       5.74166475      16.87296496  T       0.25142467       0.13596450       0.23231341
O        5.76927680       0.30802783      18.18098892  T      -0.05799259      -0.16133961       0.08082145
O        8.71708995       5.97247947      17.90969540  T      -0.23121233       0.19979867      -0.02238230
O        6.97985205       7.87367473      18.42823267  T      -0.01269614       0.28708703      -0.14100253
O        2.27209041       4.49012925       3.82672974  T      -0.62883826       0.80295971      -0.24236671
O        1.47998716       2.43027727       2.56217684  T       0.00176730       0.02542412      -0.63374771
O        3.90927098       2.71872593       4.18070919  T      -0.05829949      -0.10309680       0.05320453
O        3.70359535       4.59902764       6.15526838  T      -0.47978122      -0.84421914      -0.37092044
O        1.71539226       2.92871807       5.80217162  T      -0.36188295      -0.09783050       0.16562625
O        4.82243110       1.32105538       5.88213597  T       0.19633761       0.08034183      -0.60270188
O        5.25726701       0.82121777       3.24743247  T      -0.21876860       0.10187896      -0.20478975
O        6.16049529       3.62936362       4.03131151  T       0.04033342      -0.05189469       0.10508344
O        7.07237691       1.33382097       4.62671821  T       0.18406589       0.31284012       0.53723490
O        8.96995351       2.44841554       6.26505679  T       0.79662634      -0.13259456       0.40576376
O        9.54449634       0.41531042       4.70953893  T       0.36266407       0.42355778      -0.04289582
O        0.87402470       9.78994161       2.63491853  T       0.32066010      -0.01192059      -0.40268369
O        1.22179526       8.21400284       4.64546013  T      -0.65810670       0.31753604      -0.36305001
O        9.87000000       6.98000000       2.02000000  F       0.00000000       0.00000000       0.00000000
O        5.15395863       6.17616836       4.53241097  T       0.31933295      -0.30837321       0.19514968
O        5.59000000       5.63000000       2.17000000  F       0.00000000       0.00000000       0.00000000
O        7.78033480       5.79245143       3.62873108  T       0.02200822       0.19369853      -0.10067069
O        5.60947332       8.19478993       2.67334862  T      -0.04253773       0.38181080      -0.53530558
O        8.54250291       8.39686563       3.63643239  T       0.20521447      -0.24398568      -0.28249588
O        3.54464469       4.17909243      11.52843792  T      -0.42443164      -0.07311800      -0.12480888
O        1.14029732       4.88672589      11.35137827  T       0.02031085      -0.25542094       0.10948495
O        1.73734090       0.91783090      10.34570858  T      -0.20418834      -0.16827744       0.43833045
O        2.79047896       3.09617652       9.32058850  T       0.02649013       0.47381151       0.04012803
O        3.57461102       0.96372416       8.14606342  T      -0.41352186       0.29648507       0.47854053
O        1.06737794       1.65672996       7.93139523  T      -0.21334195      -0.25903385       0.11179472
O        0.43052613       4.16842366       7.88911389  T       0.04149894      -0.11815554      -0.07019997
O        9.28449170       1.31048410      11.43374238  T      -0.43047122       0.03768060      -0.49880970
O        5.92411105       2.56154856       7.78266435  T       0.32524836       0.11554143       0.20791968
O        5.26328080       4.03046381       9.71071980  T       0.24674542       0.04257777       0.06543377
O        7.34233006       2.44227874      10.03055252  T       0.19039023       0.17624795       0.04507675
O        6.82820437       0.19568335      11.30599576  T      -0.91337417      -0.32639246       0.45470643
O        7.51828800       4.85606237       8.95852866  T      -0.13750486      -0.30826599      -0.12870862
O        8.09042013       9.73420492       6.59656674  T       0.02410472       0.33177912      -0.25924450
O        4.07605927       7.04727096       6.84437075  T       0.46787413      -0.21174647      -0.43208339
O        3.95317869       9.59833398      11.24694355  T       0.25527344      -0.13196287      -0.24672973
O        3.06005218       8.34829179       8.86801752  T       0.00263826      -0.13807189      -0.15770556
O        1.53894084       6.63647599       7.47075471  T      -0.08322251      -0.28181625       0.05370252
O        3.34963419       5.60800029       9.01465356  T      -0.03400159      -0.14307934       0.36365879
O        0.19693017       6.48838765       9.53403064  T      -0.24945683      -0.13919450       0.30253811
O        2.27391013       7.41397319      11.08399514  T      -0.46476314      -0.46775415       0.31315950
O        4.98448493       7.36308832      10.21064530  T      -0.43327729       0.24164767       0.06598412
O        8.17965537       0.04708645       9.20386456  T      -0.02504505      -0.22837721      -0.47912196
O        7.52045809       7.20954036      11.36630784  T       0.03090446      -0.03772610      -0.29703315
O        6.18184460       5.50065266       6.87997199  T       0.14736678       0.05260537      -0.00451612
O        5.81096469       9.89722047       8.02890646  T       0.07105520      -0.21753887      -0.09085435
O        8.93353496       6.08025691       7.09570134  T      -0.51010335       0.02133758       0.45516052
O        7.26769908       7.67113314       8.17048756  T      -0.18651543       0.08803538       0.03951810
O        3.55000000       4.18000000       1.53000000  F       0.00000000       0.00000000       0.00000000
O        1.14000000       4.89000000       1.35000000  F       0.00000000       0.00000000       0.00000000
O        9.29000000       1.31000000       1.44000000  F       0.00000000       0.00000000       0.00000000
O        6.84000000       0.20000000       1.30000000  F       0.00000000       0.00000000       0.00000000
O        3.95000000       9.60000000       1.25000000  F       0.00000000       0.00000000       0.00000000
O        2.28000000       7.42000000       1.08000000  F       0.00000000       0.00000000       0.00000000
O        7.52000000       7.21000000       1.37000000  F       0.00000000       0.00000000       0.00000000
Si       2.10196509       3.97778695      12.31980637  T       0.27326935      -0.30667891      -0.02328707
Si       2.89187917       3.64823610      15.08746372  T       0.26060153      -0.24421896      -0.35659331
Si       0.88863124       1.15041536      11.76580736  T      -0.19764593       0.05374200      -0.58247739
Si       8.27310358       0.95354997      15.60938128  T       0.43526798       0.50017766      -0.08243813
Si       5.41477076       1.99284047      14.42948151  T       0.67437764       0.40151202      -0.06586432
Si       4.78713909       5.94572517      16.08092513  T      -0.39484775      -0.60525350       0.13374215
Si       0.00216342       9.15735149      13.87018487  T       0.29635073      -0.35986410       0.03491084
Si       6.20820296       5.20960378      13.70372073  T      -0.24889804      -0.06229401      -0.87971091
Si       5.42113754       9.76822345      12.06382442  T       0.14849127      -0.24328930       0.54445245
Si       8.39091430       7.03957837      12.73787099  T       0.12410780      -0.05955926      -0.29784022
Si       3.04213134       4.32758866      20.22770257  T       0.30608952      -0.33430115      -0.31219506
Si       2.13638648       1.51278895      19.12581765  T      -0.49861616      -0.97146830      -0.57628328
Si       0.48084293       2.69689958      17.00389232  T       0.11292240      -0.41883176      -0.85637902
Si       4.92008279       1.59797717      17.68501433  T       0.02116575      -0.28226098      -0.69482849
Si       5.95113951       3.76988109      19.66313460  T       0.15447868      -0.02739267       0.42920242
Si       7.63434737       1.18419676      20.65379299  T       0.60124449       0.58333030      -0.86660018
Si       2.57102238       8.73179521      20.38602809  T       0.13567430       0.24458695      -0.54223476
Si       2.84795240       6.67392336      18.12111292  T       1.08189893       0.54203139       0.15509057
Si       1.08039466       6.15943816      21.42331805  T       0.05636408      -0.08724565      -0.93977596
Si       0.20730812       5.57819106      18.39775454  T      -0.38131250      -0.25020537      -0.29814051
Si       6.22169129       9.27575986      22.46853313  T      -1.16042528      -0.59750315      -0.19093543
Si       7.12997264       6.24109906      18.15846056  T      -0.00902255       0.15393936      -0.20898614
Si       7.17880366       9.52614309      18.11677499  T      -0.15725239      -0.53572514       0.92201737
Si       2.10000000       3.98000000       2.32000000  F       0.00000000       0.00000000       0.00000000
Si       2.91426552       3.64985101       5.03297817  T       0.57498259      -0.02065602       0.39978641
Si       0.89000000       1.15000000       1.77000000  F       0.00000000       0.00000000       0.00000000
Si       8.35665064       1.04153474       5.59960721  T      -0.45772358       0.21975542      -0.05281325
Si       5.41390837       1.98905767       4.43092004  T       0.55475837      -0.13094447       0.12207981
Si       4.78202090       5.76773868       6.06405319  T       0.26775965       1.05710655       0.56907949
Si       0.00385328       9.15499227       3.87489041  T       0.54360367      -0.69179548       0.68768111
Si       6.20850077       5.20831891       3.70688905  T      -0.20757260      -0.24045467      -0.44121649
Si       5.42000000       9.77000000       2.06000000  F       0.00000000       0.00000000       0.00000000
Si       8.39165288       7.04010238       2.74182685  T       0.23405734       0.01084129       0.25075479
Si       3.71867273       4.28876429       9.89195480  T      -0.17534258      -0.17365123       0.27858171
Si       2.29321229       1.61761881       9.00505092  T       0.43962651      -0.32330705      -0.68022415
Si       0.55432122       2.81200210       6.93977565  T      -0.79978253       0.27180324      -0.02835738
Si       5.02922126       1.19205707       7.45240485  T      -0.11009444       0.28989740       0.32682416
Si       6.58736159       3.44127314       9.03929532  T      -0.36236351       0.17975927      -0.09439102
Si       7.93484104       1.01904335      10.49941056  T       0.65060895      -0.14929670      -0.07865425
Si       3.50461238       8.23113062      10.42002507  T       0.63499888       0.14930778       0.00945759
Si       3.06276424       6.90128906       8.07751237  T      -1.00835273       0.17123775      -0.35453358
Si       0.91331751       6.44173685      10.97994986  T       0.44863825       0.23791978       0.01217383
Si       0.20619809       5.79064852       8.09065454  T       0.87099891       0.09341157      -1.30021536
Si       5.90993506       7.07706526      11.49554144  T      -0.01353590      -0.40492548       0.77455670
Si       7.41214965       6.06216894       7.84473718  T       0.30029498       0.29931175      -0.73067456
Si       7.31317504       9.31830221       7.93775278  T       0.45470378      -0.23610404       1.07738872
Si       7.93000000       1.02000000       0.50000000  F       0.00000000       0.00000000       0.00000000
Si       0.91000000       6.44000000       0.98000000  F       0.00000000       0.00000000       0.00000000
Si       5.91000000       7.08000000       1.49000000  F       0.00000000       0.00000000       0.00000000
C        4.99028551       5.00183902      26.30948288  T      -0.54412068       0.10906590     -13.16504344
F        5.79407521       6.03519303      26.30960656  T       0.23624743       0.34589418     -20.81115126
F        5.79489464       3.96377202      26.30961791  T       0.31281716      -0.44280671     -20.81105877
153
Lattice="10.0 0.0 0.0 0.0 10.0 0.0 0.0 0.0 43.74" Properties=species:S:1:pos:R:3:move_mask:L:1:momenta:R:3 etch=trj_CF2_30eV_case1 idx=0 index=0 source=trj_CF2_30eV_case1/0000/OUTCAR converged=T time_fs=5.0 pbc="T T T"
O        2.27409512       4.49145426      13.83064102  T      -0.37411572       0.72565863       0.05228724
O        1.48176848       2.43626792      12.56170669  T       0.10206062       0.38190282      -0.53870207
O        3.90564891       2.71539104      14.18417894  T      -0.27632158      -0.30149414       0.27085397
O        3.82180243       4.56566409      16.06503249  T       0.09716792       0.34192635       0.31315006
O        1.64703223       2.88810186      15.79968720  T      -0.16564090      -0.11143874       0.60465812
O        5.09590042       1.64158275      16.05195380  T      -0.25724472       0.10772677       0.71667008
O        5.25149829       0.82354667      13.24982062  T      -0.54856895       0.23424482      -0.00225275
O        6.15965806       3.62591998      14.03233454  T      -0.02182192      -0.24990973       0.14624128
O        7.07247140       1.33359544      14.62558509  T       0.14604739       0.23815607       0.35289496
O        9.06614734       2.28694931      16.26503825  T      -0.24059485      -0.18144764       0.33222513
O        9.53854126       0.41426834      14.71832206  T      -0.06590709       0.24380365       0.50308408
O        0.87364133       9.78280552      12.64176867  T       0.23356502      -0.43573494       0.09595120
O        1.22062364       8.21410082      14.64617182  T      -0.59518275       0.25606573      -0.23834646
O        9.86450218       6.98213545      12.03541861  T      -0.29793110       0.11560587       0.95276699
O        5.15482289       6.18049276      14.53411335  T       0.31362846       0.02899477       0.26494976
O        5.59613533       5.62671465      12.17368804  T       0.38667572      -0.21222115       0.22618576
O        7.78112475       5.79280217      13.63112314  T       0.06163484       0.17727941       0.07129853
O        5.60756895       8.20483366      12.67338740  T      -0.15269263       0.91952633      -0.41756545
O        8.54670887       8.39790651      13.63925267  T       0.42451664      -0.13184252      -0.04634242
O        2.43776843       5.21845235      21.43555994  T      -0.13553987      -0.10615274       0.35079061
O        0.21646835       6.18872850      22.75433827  T      -0.21991235      -0.08282070       0.26693590
O        1.83307134       0.12443625      19.96360817  T       0.19382989       0.27503546       0.23715320
O        2.16848171       2.92906817      19.88193470  T       0.53077451       1.12026615       0.71760933
O        3.43588297       1.25256379      18.20820322  T       0.34586855       0.16223966      -0.10050110
O        0.91833990       1.48643382      18.01199459  T      -0.11143294       0.40963456       0.13051967
O        0.40068943       4.11531737      17.73528627  T       0.04565518       0.29131491       0.32012874
O        9.09032157       1.35065840      21.39305955  T       0.02186642       0.04384819       0.19585148
O        5.41855269       2.96281709      18.38021227  T      -0.08322226       0.19128681      -0.61114190
O        4.60506271       3.96763451      20.62842823  T       0.31956876      -0.14936707      -0.09496205
O        7.10626763       2.68228750      20.21520021  T      -0.23569399       0.14837091       0.33426582
O        6.44475048       0.41441838      21.41280066  T      -0.31269948       0.29356838       0.17180913
O        6.63648668       5.24481408      19.38222554  T      -0.21534147      -0.31277520       0.13202292
O        7.90681166       9.80273423      16.72912518  T       0.40533302       0.15750277      -0.63332798
O        3.86476043       7.03650928      16.86241444  T      -0.32456242      -0.22155825       0.14495433
O        3.70529058       9.42018695      21.43010569  T       0.33614757       0.00690076       0.00007054
O        3.20019308       7.95262337      19.09371350  T       0.01673559       0.16942728       0.23396436
O        1.29641720       6.62087329      17.78278822  T      -0.79485470       0.06639408      -0.44552285
O        3.20969365       5.27584339      18.89061539  T      -0.02105049      -0.24385525       0.02651344
O        0.36058193       5.53378129      20.00512654  T       0.01917930       0.24044866       0.92258488
O        1.54345485       7.68491879      21.02841882  T      -0.39218425      -0.28001292       0.52387790
O        4.75850552       8.47221453      21.90666737  T       0.53026214       0.13396159       0.42479056
O        8.01846373       0.21755428      19.38655559  T      -0.09091412      -0.15276202      -0.21396917
O        6.92269729       8.84753588      23.74456416  T       0.15017360      -0.14881940       0.25247615
O        6.20493724       5.74260492      16.87453554  T       0.29649491       0.17031749       0.27796800
O        5.76887955       0.30691102      18.18154803  T      -0.07128641      -0.20254198       0.10133456
O        8.71551485       5.97385136      17.90954966  T      -0.28099515       0.24676701      -0.02475753
O        6.97976187       7.87561188      18.42726965  T      -0.01678371       0.34210254      -0.17227215
O        2.26780259       4.49559529       3.82514075  T      -0.76584507       0.97457781      -0.27218448
O        1.48000989       2.43046365       2.55781244  T       0.00605923       0.03573153      -0.78743688
O        3.90887228       2.71801638       4.18106005  T      -0.07142211      -0.12793656       0.06045254
O        3.70043208       4.59337568       6.15276228  T      -0.54505945      -0.99017533      -0.44308745
O        1.71294154       2.92806631       5.80327492  T      -0.43458742      -0.11356966       0.19224951
O        4.82378056       1.32158968       5.87811049  T       0.24295482       0.09291307      -0.70340252
O        5.25577029       0.82193134       3.24603403  T      -0.26822022       0.13094984      -0.25012447
O        6.16077390       3.62900483       4.03203082  T       0.05042535      -0.06500675       0.12897182
O        7.07361261       1.33598801       4.63039166  T       0.21703718       0.39333376       0.65790292
O        8.97540208       2.44748629       6.26783612  T       0.97600813      -0.17065972       0.49863503
O        9.54698752       0.41820323       4.70922353  T       0.44825666       0.51753176      -0.06054399
O        0.87621358       9.78983321       2.63217798  T       0.39139141      -0.02437557      -0.48850144
O        1.21728941       8.21616290       4.64297887  T      -0.80795524       0.38466630      -0.44407528
O        9.87000000       6.98000000       2.02000000  F       0.00000000       0.00000000       0.00000000
O        5.15615270       6.17405212       4.53375460  T       0.39492534      -0.38045983       0.24238941
O        5.59000000       5.63000000       2.17000000  F       0.00000000       0.00000000       0.00000000
O        7.78046749       5.79376716       3.62804565  T       0.02046781       0.23402992      -0.12222286
O        5.60918091       8.19739572       2.66967547  T      -0.05265244       0.46575287      -0.66024805
O        8.54392541       8.39522255       3.63451131  T       0.25836794      -0.28957566      -0.34209907
O        3.54175703       4.17859044      11.52758499  T      -0.51447211      -0.09028152      -0.15266138
O        1.14042343       4.88500286      11.35212435  T       0.02023239      -0.30427870       0.13316652
O        1.73597598       0.91669848      10.34863881  T      -0.23868906      -0.19952400       0.51246411
O        2.79061667       3.09934320       9.32083716  T       0.01667326       0.55375603       0.03978342
O        3.57184966       0.96574582       8.14931144  T      -0.48221246       0.36098259       0.57721385
O        1.06590549       1.65496760       7.93216081  T      -0.26624486      -0.31402222       0.13734944
O        0.43080789       4.16764551       7.88863622  T       0.05010469      -0.13383808      -0.08513003
O        9.28158643       1.31073813      11.43033790  T      -0.51319971       0.04484059      -0.60855842
O        5.92632220       2.56230787       7.78406701  T       0.39366131       0.13031657       0.24770200
O        5.26491083       4.03077528       9.71119667  T       0.28144242       0.05953629       0.09086310
O        7.34364699       2.44346209      10.03086374  T       0.23864722       0.20794286       0.05626855
O        6.82206767       0.19351922      11.30901490  T      -1.07915490      -0.37524655       0.52423107
O        7.51734548       4.85397861       8.95760752  T      -0.16923403      -0.36878547      -0.17256643
O        8.09055047       9.73645753       6.59484990  T       0.01702730       0.40052960      -0.29724693
O        4.07919597       7.04584949       6.84148340  T       0.55018215      -0.24953341      -0.50471406
O        3.95492848       9.59743662      11.24524769  T       0.31419986      -0.15977677      -0.30536338
O        3.06006441       8.34734201       8.86694218  T       0.00110703      -0.17117200      -0.19204108
O        1.53837772       6.63454946       7.47109579  T      -0.09972347      -0.34491232       0.05614898
O        3.34938394       5.60708363       9.01710952  T      -0.04810796      -0.15284354       0.43425962
O        0.19521021       6.48739827       9.53602787  T      -0.31063241      -0.18411138       0.34465429
O        2.27081418       7.41082700      11.08611430  T      -0.53937438      -0.55387298       0.37554531
O        4.98155114       7.36472033      10.21114974  T      -0.52009827       0.28849484       0.10017404
O        8.17949465       0.04554241       9.20063208  T      -0.02674717      -0.27326134      -0.57080152
O        7.52064820       7.20927860      11.36427024  T       0.03013658      -0.04759782      -0.36613967
O        6.18285169       5.50101407       6.87993254  T       0.18026022       0.06505692      -0.00865470
O        5.81142853       9.89575025       8.02827249  T       0.07905344      -0.26015110      -0.11590318
O        8.93007462       6.08040584       7.09881047  T      -0.61448193       0.02724042       0.55623502
O        7.26641416       7.67172528       8.17075984  T      -0.23191204       0.10421764       0.04915587
O        3.55000000       4.18000000       1.53000000  F       0.00000000       0.00000000       0.00000000
O        1.14000000       4.89000000       1.35000000  F       0.00000000       0.00000000       0.00000000
O        9.29000000       1.31000000       1.44000000  F       0.00000000       0.00000000       0.00000000
O        6.84000000       0.20000000       1.30000000  F       0.00000000       0.00000000       0.00000000
O        3.95000000       9.60000000       1.25000000  F       0.00000000       0.00000000       0.00000000
O        2.28000000       7.42000000       1.08000000  F       0.00000000       0.00000000       0.00000000
O        7.52000000       7.21000000       1.37000000  F       0.00000000       0.00000000       0.00000000
Si       2.10302375       3.97660104      12.31972437  T       0.33091685      -0.36999542      -0.02289560
Si       2.89288746       3.64729215      15.08607345  T       0.31478370      -0.29436858      -0.43751308
Si       0.88784948       1.15061518      11.76355115  T      -0.24967225       0.05975496      -0.70525270
Si       8.27479813       0.95550221      15.60906968  T       0.53244970       0.61504928      -0.09486046
Si       5.41740787       1.99441055      14.42923930  T       0.83247008       0.49563848      -0.07153436
Si       4.78561539       5.94335679      16.08145447  T      -0.47439545      -0.74808640       0.16916082
Si       0.00330254       9.15597460      13.87033915  T       0.35323464      -0.42486953       0.05435010
Si       6.20724072       5.20934669      13.70029853  T      -0.30013988      -0.08555104      -1.07436924
Si       5.42169135       9.76728988      12.06596169  T       0.16602138      -0.28877257       0.67735171
Si       8.39138837       7.03934565      12.73671306  T       0.14596523      -0.07339552      -0.36331882
Si       3.04333927       4.32629638      20.22650851  T       0.38496917      -0.40294376      -0.36824170
Si       2.13446277       1.50908701      19.12359339  T      -0.59877036      -1.13774292      -0.69294342
Si       0.48127111       2.69530176      17.00055853  T       0.13079915      -0.49157898      -1.04748594
Si       4.92018533       1.59688114      17.68231962  T       0.03874153      -0.34349106      -0.84322088
Si       5.95172980       3.76975204      19.66478371  T       0.18189071      -0.04778826       0.51112298
Si       7.63667093       1.18645721      20.65042681  T       0.72463181       0.70692594      -1.05531576
Si       2.57153442       8.73273273      20.38394832  T       0.15567005       0.28988376      -0.64337413
Si       2.85209670       6.67601639      18.12171566  T       1.28062663       0.65212458       0.18919434
Si       1.08061602       6.15908088      21.41965529  T       0.07013763      -0.11794402      -1.15197573
Si       0.20581554       5.57722473      18.39662824  T      -0.47161311      -0.30107225      -0.34288245
Si       6.21718404       9.27342818      22.46782103  T      -1.41284495      -0.73432511      -0.21369541
Si       7.12992638       6.24169818      18.15766175  T      -0.01816096       0.18822281      -0.24617342
Si       7.17821236       9.52406813      18.12030712  T      -0.17918661      -0.64854630       1.09150141
Si       2.10000000       3.98000000       2.32000000  F       0.00000000       0.00000000       0.00000000
Si       2.91645483       3.64976950       5.03449673  T       0.67196694      -0.02616851       0.46487485
Si       0.89000000       1.15000000       1.77000000  F       0.00000000       0.00000000       0.00000000
Si       8.35489485       1.04239968       5.59940672  T      -0.54309868       0.27481073      -0.06128956
Si       5.41608249       1.98855065       4.43138036  T       0.68784588      -0.15839469       0.13976041
Si       4.78303363       5.77179583       6.06626901  T       0.30902194       1.25607966       0.69622165
Si       0.00597534       9.15232191       3.87757116  T       0.66850798      -0.83155321       0.84342732
Si       6.20769827       5.20737260       3.70516072  T      -0.25034791      -0.30068115      -0.54653865
Si       5.42000000       9.77000000       2.06000000  F       0.00000000       0.00000000       0.00000000
Si       8.39256900       7.04013695       2.74279137  T       0.28947540       0.00836464       0.29925318
Si       3.71801228       4.28808767       9.89304859  T      -0.20042329      -0.21277264       0.34666359
Si       2.29489949       1.61638289       9.00243166  T       0.52208262      -0.38093778      -0.81367735
Si       0.55120096       2.81304137       6.93967198  T      -0.98250059       0.32044240      -0.03036148
Si       5.02879128       1.19318858       7.45365604  T      -0.13548417       0.35646551       0.38638783
Si       6.58596718       3.44197550       9.03893749  T      -0.43283711       0.22151794      -0.10927279
Si       7.93731491       1.01843135      10.49911099  T       0.75829146      -0.20213226      -0.09221027
Si       3.50706012       8.23169306      10.42007380  T       0.76129383       0.17071372       0.01908777
Si       3.05885194       6.90193593       8.07612077  T      -1.22501025       0.19689619      -0.44086869
Si       0.91502914       6.44265008      10.98003656  T       0.52650076       0.28259520       0.03982257
Si       0.20959182       5.79101632       8.08561375  T       1.06716081       0.11676704      -1.57717897
Si       5.90987321       7.07550317      11.49855197  T      -0.02237983      -0.48614613       0.94443165
Si       7.41331543       6.06332427       7.84190816  T       0.36512526       0.35984948      -0.88388085
Si       7.31496413       9.31738684       7.94192659  T       0.56813999      -0.28644128       1.30483513
Si       7.93000000       1.02000000       0.50000000  F       0.00000000       0.00000000       0.00000000
Si       0.91000000       6.44000000       0.98000000  F       0.00000000       0.00000000       0.00000000
Si       5.91000000       7.08000000       1.49000000  F       0.00000000       0.00000000       0.00000000
C        4.98551268       5.00282244      26.20180771  T      -0.61670551       0.13075996     -13.16756274
F        5.79538116       6.03713341      26.20200731  T       0.26598306       0.40171529     -20.81111565
F        5.79663524       3.96128083      26.20201776  T       0.35702381      -0.51717265     -20.81158455
153
Lattice="10.0 0.0 0.0 0.0 10.0 0.0 0.0 0.0 43.74" Properties=species:S:1:pos:R:3:move_mask:L:1:momenta:R:3 etch=trj_CF2_30eV_case1 idx=0 index=0 source=trj_CF2_30eV_case1/0000/OUTCAR converged=T time_fs=6.0 pbc="T T T"
O        2.27159862       4.49629597      13.83102205  T      -0.43817340       0.84964171       0.07260390
O        1.48242088       2.43877271      12.55807409  T       0.10931590       0.43172119      -0.64440247
O        3.90380355       2.71335159      14.18600334  T      -0.32412793      -0.36296058       0.32325086
O        3.82240153       4.56789591      16.06710608  T       0.09619606       0.38261111       0.36105418
O        1.64599215       2.88738327      15.80369446  T      -0.17067913      -0.12160765       0.69823322
O        5.09419110       1.64232289      16.05661729  T      -0.29868460       0.13375141       0.79685782
O        5.24780918       0.82513672      13.24983099  T      -0.65264859       0.28391943       0.00637278
O        6.15951198       3.62427739      14.03330521  T      -0.02572227      -0.28373686       0.16939760
O        7.07341665       1.33521427      14.62793774  T       0.16065690       0.28947781       0.41255682
O        9.06455139       2.28577259      16.26729240  T      -0.27841460      -0.20035505       0.40235854
O        9.53817638       0.41582232      14.72161214  T      -0.05055691       0.25975771       0.56547196
O        0.87520764       9.77995388      12.64236389  T       0.27627435      -0.49046097       0.09638471
O        1.21664990       8.21579764      14.64459423  T      -0.69774724       0.29558606      -0.27449552
O        9.86265546       6.98285266      12.04171084  T      -0.29873135       0.11619467       1.09271305
O        5.15693946       6.18067919      14.53589314  T       0.37581205       0.03140366       0.31446877
O        5.59870865       5.62528690      12.17517371  T       0.45031834      -0.25268217       0.25632854
O        7.78150841       5.79398462      13.63159876  T       0.06233308       0.20745256       0.08341650
O        5.60655438       8.21090676      12.67060699  T      -0.17725018       1.05423126      -0.48678181
O        8.54953933       8.39702849      13.63894576  T       0.49630477      -0.15381879      -0.05347716
O        2.43688126       5.21772029      21.43789531  T      -0.15257006      -0.13279970       0.40878141
O        0.21501436       6.18816889      22.75609352  T      -0.25257428      -0.09950109       0.30314536
O        1.83436271       0.12625485      19.96521559  T       0.22628870       0.31620440       0.28664721
O        2.17200220       2.93630453      19.88662073  T       0.61388542       1.22749531       0.80433823
O        3.43811555       1.25364585      18.20756996  T       0.37831379       0.18981466      -0.10443704
O        0.91757735       1.48917334      18.01287667  T      -0.13733307       0.48193067       0.15677642
O        0.40099935       4.11713524      17.73738220  T       0.05532185       0.29653119       0.36070202
O        9.09047126       1.35095706      21.39437192  T       0.02692515       0.05351475       0.23130563
O        5.41802108       2.96412858      18.37615801  T      -0.08904619       0.23642381      -0.70736250
O        4.60719161       3.96663907      20.62780859  T       0.37299455      -0.17447991      -0.10611279
O        7.10469757       2.68328721      20.21744468  T      -0.27505046       0.17719233       0.39646113
O        6.44271816       0.41641302      21.41393385  T      -0.34702309       0.35632731       0.19666313
O        6.63507021       5.24277169      19.38308122  T      -0.24491472      -0.35039815       0.14563014
O        7.90944627       9.80374253      16.72504897  T       0.45000014       0.16938090      -0.68884387
O        3.86261697       7.03502970      16.86335716  T      -0.37209250      -0.25988660       0.16092191
O        3.70753807       9.42021856      21.43008812  T       0.39533804       0.00293006      -0.00630230
O        3.20031854       7.95376271      19.09526981  T       0.02456298       0.20151542       0.27218761
O        1.29128787       6.62134651      17.77984617  T      -0.86943302       0.08841406      -0.51086589
O        3.20954893       5.27427119      18.89075727  T      -0.02614252      -0.26603328       0.01860884
O        0.36065737       5.53538635      20.01117922  T       0.00361440       0.28168725       1.04347122
O        1.54090076       7.68316889      21.03188819  T      -0.43698182      -0.28576725       0.60418681
O        4.76201474       8.47308871      21.90950755  T       0.61035126       0.14978327       0.49937287
O        8.01787610       0.21654183      19.38514058  T      -0.09965366      -0.17641006      -0.24600805
O        6.92364176       8.84656331      23.74614761  T       0.15545399      -0.16703557       0.25981036
O        6.20686909       5.74375609      16.87636325  T       0.33062902       0.20466464       0.31585900
O        5.76840281       0.30554010      18.18223336  T      -0.08387678      -0.24410238       0.12191988
O        8.71364961       5.97550574      17.90939507  T      -0.32554640       0.29174723      -0.02522202
O        6.97964477       7.87785473      18.42612220  T      -0.02149010       0.38632067      -0.20099564
O        2.26270935       4.50206284       3.82342008  T      -0.89096378       1.12881961      -0.28509502
O        1.48006628       2.43072100       2.55251399  T       0.01280537       0.04863280      -0.93789271
O        3.90839571       2.71715620       4.18144454  T      -0.08363990      -0.15213815       0.06408301
O        3.69696304       4.58694264       6.14985473  T      -0.57884246      -1.09789464      -0.50114444
O        1.71007626       2.92733350       5.80451570  T      -0.49669940      -0.12412180       0.21025356
O        4.82541088       1.32218749       5.87355563  T       0.28774898       0.10091815      -0.77453731
O        5.25398002       0.82282985       3.24436825  T      -0.31427420       0.16216686      -0.29177101
O        6.16111452       3.62856511       4.03289219  T       0.06054176      -0.07827122       0.15130746
O        7.07502591       1.33865357       4.63477970  T       0.24165944       0.47528454       0.76972294
O        8.98191198       2.44631382       6.27116830  T       1.14179765      -0.21193851       0.58561163
O        9.54999360       0.42165146       4.70878806  T       0.53022326       0.60432605      -0.08205750
O        0.87881986       9.78963160       2.62893726  T       0.45651484      -0.04239117      -0.56541937
O        1.21189465       8.21870934       4.64002084  T      -0.94717262       0.44299632      -0.51802470
O        9.87000000       6.98000000       2.02000000  F       0.00000000       0.00000000       0.00000000
O        5.15880264       6.17150273       4.53538560  T       0.46773736      -0.44937621       0.28874431
O        5.59000000       5.63000000       2.17000000  F       0.00000000       0.00000000       0.00000000
O        7.78057792       5.79531531       3.62723461  T       0.01465255       0.26925868      -0.14152544
O        5.60882752       8.20049437       2.66525266  T      -0.06238820       0.54208503      -0.77929421
O        8.54567754       8.39332866       3.63224520  T       0.31261254      -0.32539606      -0.39468048
O        3.53834723       4.17798529      11.52656766  T      -0.59419478      -0.10669531      -0.17827689
O        1.14053994       4.88300701      11.35300917  T       0.01712830      -0.34408250       0.15462800
O        1.73442926       0.91539256      10.35196019  T      -0.26317086      -0.22471735       0.56525723
O        2.79066541       3.10293287       9.32106512  T      -0.00265112       0.61118149       0.03325884
O        3.56873228       0.96814414       8.15312526  T      -0.52881710       0.41892651       0.66242365
O        1.06410964       1.65288552       7.93307911  T      -0.31864453      -0.36303318       0.16152486
O        0.43113941       4.16679679       7.88807158  T       0.05769039      -0.14090942      -0.09849716
O        9.27822074       1.31103228      11.42628856  T      -0.57994593       0.05073706      -0.70854306
O        5.92892955       2.56313245       7.78569157  T       0.45410346       0.13661613       0.28001545
O        5.26670629       4.03120187       9.71184591  T       0.30033818       0.08013694       0.12169917
O        7.34526069       2.44481804      10.03124286  T       0.28702751       0.23232581       0.06714743
O        6.81502447       0.19111154      11.31238340  T      -1.20789735      -0.40543180       0.56803023
O        7.51621324       4.85155310       8.95639667  T      -0.19925073      -0.41936690      -0.22319905
O        8.09061505       9.73910677       6.59294689  T       0.00258903       0.46079604      -0.31959636
O        4.08277352       7.04422742       6.83821482  T       0.61087941      -0.27662642      -0.55573411
O        3.95703090       9.59637866      11.24319787  T       0.37005647      -0.18414998      -0.36195600
O        3.06006314       8.34619167       8.86566558  T      -0.00179591      -0.20337673      -0.22316703
O        1.53772200       6.63225051       7.47142977  T      -0.11326148      -0.40292479       0.05108880
O        3.34903703       5.60615252       9.01996277  T      -0.06556159      -0.14751996       0.49283268
O        0.19311849       6.48611626       9.53822601  T      -0.37043256      -0.23457128       0.36769822
O        2.26733511       7.40720790      11.08858905  T      -0.58899454      -0.62136815       0.42885085
O        4.97812438       7.36661398      10.21189523  T      -0.59348207       0.32659052       0.14470742
O        8.17933364       0.04374606       9.19688998  T      -0.02494902      -0.31031814      -0.64458115
O        7.52081848       7.20895526      11.36181870  T       0.02434128      -0.05780329      -0.43173375
O        6.18405312       5.50145077       6.87986217  T       0.21058991       0.07712846      -0.01463745
O        5.81192482       9.89403964       8.02748075  T       0.08155482      -0.29568569      -0.14226041
O        8.92601984       6.08059210       7.10251532  T      -0.70312654       0.03350801       0.64891762
O        7.26485303       7.67240569       8.17109090  T      -0.27646032       0.11667258       0.05866354
O        3.55000000       4.18000000       1.53000000  F       0.00000000       0.00000000       0.00000000
O        1.14000000       4.89000000       1.35000000  F       0.00000000       0.00000000       0.00000000
O        9.29000000       1.31000000       1.44000000  F       0.00000000       0.00000000       0.00000000
O        6.84000000       0.20000000       1.30000000  F       0.00000000       0.00000000       0.00000000
O        3.95000000       9.60000000       1.25000000  F       0.00000000       0.00000000       0.00000000
O        2.28000000       7.42000000       1.08000000  F       0.00000000       0.00000000       0.00000000
O        7.52000000       7.21000000       1.37000000  F       0.00000000       0.00000000       0.00000000
Si       2.10427211       3.97520827      12.31965083  T       0.38148776      -0.42468900      -0.01828676
Si       2.89407347       3.64618465      15.08440909  T       0.36201378      -0.33752489      -0.51315732
Si       0.88688310       1.15082859      11.76088960  T      -0.30323915       0.06142627      -0.81389896
Si       8.27681978       0.95784488      15.60872334  T       0.62206578       0.72320042      -0.10216004
Si       5.42058648       1.99630305      14.42898790  T       0.98380870       0.58574283      -0.07101975
Si       4.78383376       5.94049891      16.08210969  T      -0.54200834      -0.88489258       0.20575180
Si       0.00462304       9.15439591      13.87057115  T       0.39984145      -0.47491176       0.07935824
Si       6.20611119       5.20900007      13.69622417  T      -0.34433485      -0.11362840      -1.25198269
Si       5.42228490       9.76621531      12.06856002  T       0.17079594      -0.32343303       0.80799739
Si       8.39192878       7.03906582      12.73533588  T       0.16184562      -0.08645709      -0.42303945
Si       3.04482641       4.32478146      20.22514179  T       0.46587450      -0.46117765      -0.41053722
Si       2.13221495       1.50487728      19.12098673  T      -0.68352163      -1.26127923      -0.79481268
Si       0.48175071       2.69348119      16.99658132  T       0.14213493      -0.54589111      -1.22383427
Si       4.92036157       1.59558076      17.67913487  T       0.06342549      -0.39896788      -0.97436687
Si       5.95240448       3.76953836      19.66669296  T       0.20259189      -0.07590321       0.57757287
Si       7.63939860       1.18912694      20.64642995  T       0.83198662       0.81704115      -1.22678160
Si       2.57210222       8.73381284      20.38155086  T       0.16738536       0.32596709      -0.72335231
Si       2.85686517       6.67846786      18.12243425  T       1.43809893       0.74659879       0.22140983
Si       1.08088461       6.15860784      21.41527850  T       0.08331963      -0.15348173      -1.34725037
Si       0.20401309       5.57609344      18.39537467  T      -0.55834764      -0.34428252      -0.37066794
Si       6.21183502       9.27063356      22.46705402  T      -1.64098981      -0.86171446      -0.22214914
Si       7.12984099       6.24241295      18.15674887  T      -0.03151484       0.22001632      -0.27395806
Si       7.17756033       9.52162084      18.12437127  T      -0.19193689      -0.74828108       1.22560347
Si       2.10000000       3.98000000       2.32000000  F       0.00000000       0.00000000       0.00000000
Si       2.91893465       3.64966604       5.03620668  T       0.74039674      -0.03344999       0.50870273
Si       0.89000000       1.15000000       1.77000000  F       0.00000000       0.00000000       0.00000000
Si       8.35287221       1.04345654       5.59918202  T      -0.60969972       0.32940518      -0.06652908
Si       5.41871567       1.98795357       4.43188890  T       0.81711636      -0.18230624       0.14943123
Si       4.78416917       5.77648224       6.06891137  T       0.33814791       1.41606268       0.81249918
Si       0.00852023       9.14919902       3.88077813  T       0.78494018      -0.94986991       0.98816203
Si       6.20675576       5.20621567       3.70306976  T      -0.28748923      -0.36088782      -0.64844222
Si       5.42000000       9.77000000       2.06000000  F       0.00000000       0.00000000       0.00000000
Si       8.39367554       7.04015730       2.74391034  T       0.34287106       0.00260658       0.33881077
Si       3.71728239       4.28727921       9.89437800  T      -0.21491026      -0.24891536       0.41317632
Si       2.29684419       1.61497000       8.99938370  T       0.58619318      -0.42409180      -0.92480406
Si       0.54746186       2.81423078       6.93956686  T      -1.15312545       0.35738663      -0.02907795
Si       5.02827569       1.19454614       7.45509375  T      -0.15891607       0.41900950       0.43328604
Si       6.58434763       3.44282027       9.03853708  T      -0.49076229       0.26110441      -0.11856386
Si       7.94010945       1.01762092      10.49876762  T       0.83325572      -0.26273204      -0.10389381
Si       3.50991626       8.23231502      10.42016253  T       0.86808387       0.18322988       0.03230298
Si       3.05421970       6.90265544       8.07443127  T      -1.41938793       0.21260062      -0.52466517
Si       0.91697759       6.44370248      10.98024282  T       0.58355332       0.31709676       0.08060999
Si       0.21364637       5.79146392       8.07965445  T       1.24823317       0.13883765      -1.82468767
Si       5.90977522       7.07367862      11.50213168  T      -0.03423191      -0.55462190       1.09964616
Si       7.41469557       6.06467677       7.83857466  T       0.42252145       0.41188152      -1.01862384
Si       7.31714698       9.31630409       7.94685145  T       0.67955417      -0.33172560       1.50612357
Si       7.93000000       1.02000000       0.50000000  F       0.00000000       0.00000000       0.00000000
Si       0.91000000       6.44000000       0.98000000  F       0.00000000       0.00000000       0.00000000
Si       5.91000000       7.08000000       1.49000000  F       0.00000000       0.00000000       0.00000000
C        4.98028999       5.00396740      26.09411212  T      -0.65360982       0.14842972     -13.17006268
F        5.79679883       6.03932024      26.09440834  T       0.27916817       0.44100703     -20.81099727
F        5.79855509       3.95845732      26.09441443  T       0.38186495      -0.57108181     -20.81226977
153
Lattice="10.0 0.0 0.0 0.0 10.0 0.0 0.0 0.0 43.74" Properties=species:S:1:pos:R:3:move_mask:L:1:momenta:R:3 etch=trj_CF2_30eV_case1 idx=0 index=0 source=trj_CF2_30eV_case1/0000/OUTCAR converged=T time_fs=7.0 pbc="T T T"
O        2.26872522       4.50186608      13.83154041  T      -0.49676779       0.96266407       0.09701385
O        1.48309848       2.44154402      12.55379684  T       0.11016766       0.46849212      -0.74861086
O        3.90167654       2.71093324      14.18814574  T      -0.36795325      -0.42492107       0.37436745
O        3.82296423       4.57033500      16.06945211  T       0.08511868       0.40911920       0.40177250
O        1.64496358       2.88661976      15.80823338  T      -0.16159089      -0.12598107       0.77747369
O        5.09224256       1.64322903      16.06167722  T      -0.33505964       0.16182263       0.84512955
O        5.24349028       0.82703487      13.24990665  T      -0.75362371       0.33458345       0.01903831
O        6.15934265       3.62245161      14.03440839  T      -0.02939337      -0.30940570       0.18932030
O        7.07443131       1.33715294      14.63064086  T       0.16860037       0.34233998       0.46697964
O        9.06273804       2.28450556      16.26998167  T      -0.31134990      -0.21070751       0.47394794
O        9.53794583       0.41743026      14.72523164  T      -0.02201515       0.26131687       0.61021104
O        0.87702924       9.77681228      12.64293576  T       0.31663643      -0.52999733       0.08827335
O        1.21207306       8.21771811      14.64281307  T      -0.79137100       0.32871938      -0.30448593
O        9.86088599       6.98354304      12.04879107  T      -0.27249558       0.10680690       1.20919096
O        5.15943709       6.18087458      14.53797062  T       0.43776080       0.03183648       0.36183229
O        5.60165062       5.62361414      12.17681922  T       0.50654625      -0.29199168       0.27796272
O        7.78187928       5.79534453      13.63214487  T       0.05737636       0.23503767       0.09420050
O        5.60539870       8.21772769      12.66742585  T      -0.19855887       1.16235856      -0.54780735
O        8.55278960       8.39602154      13.63859757  T       0.56107923      -0.17382486      -0.05980635
O        2.43590475       5.21681654      21.44056633  T      -0.16452694      -0.16212238       0.45995718
O        0.21338008       6.18750643      22.75804151  T      -0.27841628      -0.11633200       0.32941354
O        1.83584398       0.12830642      19.96712976  T       0.25563018       0.35084215       0.33708346
O        2.17599575       2.94404081      19.89176385  T       0.68452711       1.28272560       0.86639313
O        3.44049560       1.25488986      18.20693502  T       0.39373488       0.21494493      -0.10098926
O        0.91664947       1.49234229      18.01391890  T      -0.16537084       0.54942578       0.18262721
O        0.40136876       4.11891326      17.73969516  T       0.06500209       0.27821301       0.39075681
O        9.09065237       1.35131627      21.39589580  T       0.03207806       0.06357424       0.26468366
O        5.41746892       2.96572483      18.37154981  T      -0.08985725       0.28397799      -0.79143974
O        4.60963247       3.96549660      20.62713368  T       0.42105731      -0.19722780      -0.11289272
O        7.10289811       2.68446211      20.22006376  T      -0.31031088       0.20540813       0.45623495
O        6.44051370       0.41879411      21.41520908  T      -0.36867403       0.41924968       0.21817982
O        6.63349184       5.24053450      19.38400214  T      -0.26798164      -0.37604832       0.15319591
O        7.91230711       9.80479778      16.72072562  T       0.47898146       0.17278212      -0.71375381
O        3.86020894       7.03332394      16.86437684  T      -0.41052207      -0.29516794       0.16981762
O        3.71013821       9.42021789      21.43002297  T       0.45099799      -0.00366222      -0.01544609
O        3.20049953       7.95509539      19.09704642  T       0.03490875       0.23233805       0.30556159
O        1.28580948       6.62196546      17.77653660  T      -0.90856287       0.11381736      -0.56508412
O        3.20937225       5.27260082      18.89083239  T      -0.03144090      -0.27567637       0.00472764
O        0.36060665       5.53723174      20.01787822  T      -0.02219659       0.31853041       1.13246731
O        1.53811919       7.68145500      21.03581524  T      -0.46612231      -0.26802500       0.67280608
O        4.76597136       8.47404221      21.91278740  T       0.67544994       0.15958713       0.56778181
O        8.01724942       0.21539517      19.38354545  T      -0.10352443      -0.19638147      -0.27251605
O        6.92458471       8.84549477      23.74771770  T       0.14959105      -0.18010736       0.24805799
O        6.20897354       5.74511762      16.87839712  T       0.35250910       0.23879665       0.34495346
O        5.76785104       0.30391322      18.18304504  T      -0.09572973      -0.28588793       0.14246982
O        8.71152926       5.97742922      17.90924397  T      -0.36392676       0.33435723      -0.02359586
O        6.97949655       7.88033144      18.42480729  T      -0.02694386       0.41797581      -0.22675275
O        2.25688715       4.50941942       3.82167319  T      -1.00315839       1.26390867      -0.28076903
O        1.48017258       2.43106669       2.54630345  T       0.02238883       0.06458944      -1.08442927
O        3.90784722       2.71614975       4.18183931  T      -0.09483302      -0.17555981       0.06374758
O        3.69338906       4.57997412       6.14664120  T      -0.57898281      -1.16417569      -0.54225796
O        1.70686476       2.92655310       5.80583888  T      -0.54722967      -0.12900191       0.21901319
O        4.82730950       1.32281916       5.86866157  T       0.33026757       0.10387189      -0.81355529
O        5.25191892       0.82392708       3.24245940  T      -0.35634335       0.19570934      -0.32921758
O        6.16151738       3.62804327       4.03388524  T       0.07070439      -0.09177566       0.17181529
O        7.07656147       1.34182730       4.63982333  T       0.25664437       0.55890728       0.87119834
O        8.98939038       2.44487660       6.27501305  T       1.29090921      -0.25700567       0.66535208
O        9.55348942       0.42560870       4.70820831  T       0.60760507       0.68324754      -0.10753579
O        0.88180745       9.78930125       2.62525381  T       0.51553614      -0.06635102      -0.63261496
O        1.20568471       8.22158129       4.63663515  T      -1.07295899       0.49026330      -0.58302208
O        9.87000000       6.98000000       2.02000000  F       0.00000000       0.00000000       0.00000000
O        5.16188984       6.16854117       4.53729827  T       0.53728440      -0.51464784       0.33412823
O        5.59000000       5.63000000       2.17000000  F       0.00000000       0.00000000       0.00000000
O        7.78063828       5.79706219       3.62631272  T       0.00408688       0.29863968      -0.15828536
O        5.60841576       8.20403469       2.66011991  T      -0.07164694       0.60936676      -0.89130767
O        8.54776616       8.39124847       3.62968047  T       0.36796450      -0.35002456      -0.43919712
O        3.53448382       4.17728203      11.52540108  T      -0.66194902      -0.12221376      -0.20119265
O        1.14062749       4.88079701      11.35401838  T       0.01077074      -0.37390233       0.17365989
O        1.73276579       0.91395123      10.35553446  T      -0.27655688      -0.24362339       0.59452021
O        2.79056473       3.10680153       9.32123265  T      -0.03205664       0.64444856       0.02002727
O        3.56540506       0.97087469       8.15741546  T      -0.55000271       0.46895900       0.73202940
O        1.06199430       1.65052272       7.93414135  T      -0.37026176      -0.40535235       0.18421984
O        0.43151420       4.16593386       7.88743000  T       0.06419626      -0.13830430      -0.11017794
O        9.27450073       1.31135862      11.42165960  T      -0.62818924       0.05532809      -0.79707126
O        5.93188099       2.56396755       7.78748939  T       0.50558843       0.13363064       0.30401564
O        5.26856617       4.03176667       9.71270232  T       0.30230482       0.10457072       0.15840643
O        7.34717119       2.44629962      10.03168712  T       0.33527093       0.24878867       0.07742953
O        6.80731322       0.18857885      11.31593665  T      -1.29632021      -0.41585861       0.58416973
O        7.51490268       4.84885017       8.95485294  T      -0.22727642      -0.45901151      -0.28105644
O        8.09056754       9.74209787       6.59095789  T      -0.01950455       0.51177877      -0.32511248
O        4.08664997       7.04247800       6.83470577  T       0.64707307      -0.29056558      -0.58265932
O        3.95946575       9.59518332      11.24080791  T       0.42242223      -0.20440697      -0.41608411
O        3.06003938       8.34484671       8.86420900  T      -0.00624997      -0.23454240      -0.25058313
O        1.53699394       6.62961386       7.47170560  T      -0.12316317      -0.45470196       0.03690312
O        3.34857189       5.60530308       9.02313600  T      -0.08666185      -0.12614194       0.53836142
O        0.19066573       6.48450708       9.54050437  T      -0.42808402      -0.29067459       0.37071365
O        2.26363470       7.40323670      11.09136175  T      -0.61110676      -0.66827630       0.47254720
O        4.97429309       7.36871098      10.21294801  T      -0.65155637       0.35447916       0.20036941
O        8.17919707       0.04174940       9.19275684  T      -0.01857577      -0.33829894      -0.69770596
O        7.52093665       7.20856800      11.35897714  T       0.01311578      -0.06844028      -0.49304412
O        6.18543182       5.50196040       6.87974886  T       0.23793133       0.08881476      -0.02267414
O        5.81241905       9.89213444       8.02652308  T       0.07838813      -0.32343681      -0.16995582
O        8.92147736       6.08081811       7.10675948  T      -0.77273568       0.04020015       0.73162734
O        7.26302146       7.67314965       8.17147994  T      -0.31996977       0.12481999       0.06804432
O        3.55000000       4.18000000       1.53000000  F       0.00000000       0.00000000       0.00000000
O        1.14000000       4.89000000       1.35000000  F       0.00000000       0.00000000       0.00000000
O        9.29000000       1.31000000       1.44000000  F       0.00000000       0.00000000       0.00000000
O        6.84000000       0.20000000       1.30000000  F       0.00000000       0.00000000       0.00000000
O        3.95000000       9.60000000       1.25000000  F       0.00000000       0.00000000       0.00000000
O        2.28000000       7.42000000       1.08000000  F       0.00000000       0.00000000       0.00000000
O        7.52000000       7.21000000       1.37000000  F       0.00000000       0.00000000       0.00000000
Si       2.10568303       3.97364135      12.31960200  T       0.42362533      -0.46933015      -0.00860931
Si       2.89541099       3.64494005      15.08249061  T       0.40124193      -0.37256375      -0.58268487
Si       0.88572653       1.15103971      11.75787533  T      -0.35844163       0.05839656      -0.90666944
Si       8.27913978       0.96055220      15.60836141  T       0.70283350       0.82332572      -0.10366653
Si       5.42428098       1.99850266      14.42874969  T       1.12727691       0.67113146      -0.06395931
Si       4.78183887       5.93717518      16.08289505  T      -0.59607693      -1.01419396       0.24358083
Si       0.00608708       9.15267069      13.87090006  T       0.43517254      -0.50842633       0.10965344
Si       6.20484107       5.20854586      13.69156340  T      -0.38033350      -0.14718786      -1.40905211
Si       5.42286983       9.76504222      12.07161045  T       0.16073377      -0.34459309       0.93574337
Si       8.39251289       7.03874196      12.73376115  T       0.17079713      -0.09853447      -0.47615092
Si       3.04660097       4.32308432      20.22365379  T       0.54945496      -0.50673377      -0.43731722
Si       2.12970072       1.50031325      19.11805028  T      -0.75076333      -1.34020622      -0.88153722
Si       0.48225715       2.69150476      16.99201664  T       0.14599240      -0.58057408      -1.38298718
Si       4.92063723       1.59409744      17.67552678  T       0.09562695      -0.44798889      -1.08463017
Si       5.95313897       3.76921220      19.66880485  T       0.21602226      -0.11213805       0.62669031
Si       7.64247142       1.19215597      20.64186687  T       0.92176967       0.91214482      -1.37872039
Si       2.57269547       8.73500215      20.37891447  T       0.17014519       0.35227896      -0.77959256
Si       2.86210793       6.68121971      18.12326295  T       1.55150783       0.82360070       0.25228743
Si       1.08119803       6.15800200      21.41025477  T       0.09577606      -0.19382860      -1.52107266
Si       0.20191479       5.57482625      18.39405480  T      -0.64062403      -0.37856499      -0.38077247
Si       6.20573629       9.26741412      22.46628329  T      -1.84084284      -0.97663177      -0.21583014
Si       7.12970075       6.24323421      18.15575709  T      -0.04961397       0.24908140      -0.29108419
Si       7.17687976       9.51885018      18.12883857  T      -0.19557391      -0.83315733       1.32169507
Si       2.10000000       3.98000000       2.32000000  F       0.00000000       0.00000000       0.00000000
Si       2.92159906       3.64953205       5.03802920  T       0.77701084      -0.04390678       0.52887275
Si       0.89000000       1.15000000       1.77000000  F       0.00000000       0.00000000       0.00000000
Si       8.35065395       1.04470271       5.59894565  T      -0.65441518       0.38293546      -0.06783792
Si       5.42179309       1.98728004       4.43241577  T       0.94171144      -0.20199596       0.15009258
Si       4.78538721       5.78165418       6.07193770  T       0.35655863       1.53313104       0.91530797
Si       0.01145394       9.14570489       3.88446879  T       0.89036182      -1.04323336       1.11960700
Si       6.20569425       5.20484834       3.70062947  T      -0.31827468      -0.42096944      -0.74614589
Si       5.42000000       9.77000000       2.06000000  F       0.00000000       0.00000000       0.00000000
Si       8.39496479       7.04015111       2.74515021  T       0.39389821      -0.00687218       0.36819739
Si       3.71652100       4.28635049       9.89593612  T      -0.21843760      -0.28141549       0.47726777
Si       2.29897597       1.61343433       8.99598995  T       0.62842449      -0.45083764      -1.01100692
Si       0.54315134       2.81552715       6.93947284  T      -1.30867759       0.38142575      -0.02389675
Si       5.02768268       1.19611420       7.45667216  T      -0.17958820       0.47666929       0.46676092
Si       6.58254982       3.44379905       9.03811522  T      -0.53451537       0.29806175      -0.12137744
Si       7.94310424       1.01658556      10.49838493  T       0.87234042      -0.33060791      -0.11496832
Si       3.51310870       8.23296464      10.42030332  T       0.95327198       0.18651901       0.04875785
Si       3.04895126       6.90341144       8.07245490  T      -1.58826122       0.21768872      -0.60465704
Si       0.91908580       6.44485478      10.98061464  T       0.61750600       0.33935509       0.13435975
Si       0.21830285       5.79198470       8.07288628  T       1.41069771       0.15835018      -2.03913397
Si       5.90963037       7.07163967      11.50622586  T      -0.04916982      -0.60841037       1.23830767
Si       7.41626068       6.06619519       7.83480594  T       0.47051129       0.45461986      -1.13231662
Si       7.31971324       9.31507236       7.95242926  T       0.78696262      -0.37159665       1.67759401
Si       7.93000000       1.02000000       0.50000000  F       0.00000000       0.00000000       0.00000000
Si       0.91000000       6.44000000       0.98000000  F       0.00000000       0.00000000       0.00000000
Si       5.91000000       7.08000000       1.49000000  F       0.00000000       0.00000000       0.00000000
C        4.97491791       5.00523850      25.98639597  T      -0.65313097       0.16153650     -13.17255256
F        5.79823935       6.04166595      25.98681059  T       0.27473689       0.46319209     -20.81065041
F        5.80055098       3.95541004      25.98680744  T       0.38635328      -0.60366683     -20.81298695
153
Lattice="10.0 0.0 0.0 0.0 10.0 0.0 0.0 0.0 43.74" Properties=species:S:1:pos:R:3:move_mask:L:1:momenta:R:3 etch=trj_CF2_30eV_case1 idx=0 index=0 source=trj_CF2_30eV_case1/0000/OUTCAR converged=T time_fs=8.0 pbc="T T T"
O        2.26551039       4.50809298      13.83222076  T      -0.54929445       1.06335343       0.12530734
O        1.48376046       2.44449835      12.54888565  T       0.10415946       0.49118888      -0.85080727
O        3.89929414       2.70813308      14.19059695  T      -0.40722297      -0.48732341       0.42376013
O        3.82342560       4.57288928      16.07202462  T       0.06305083       0.41987099       0.43474360
O        1.64403775       2.88584815      15.81321009  T      -0.13698516      -0.12420291       0.84052944
O        5.09008759       1.64431397      16.06692727  T      -0.36584837       0.19199397       0.85827658
O        5.23856232       0.82924658      13.25007256  T      -0.85095654       0.38600794       0.03575835
O        6.15915152       3.62049542      14.03562283  T      -0.03282319      -0.32608463       0.20555885
O        7.07547389       1.33942069      14.63366116  T       0.16976742       0.39664326       0.51584000
O        9.06073815       2.28320306      16.27311451  T      -0.33915541      -0.21180776       0.54680336
O        9.53793215       0.41900353      14.72906998  T       0.02010144       0.24855242       0.63673101
O        0.87909018       9.77347651      12.64343106  T       0.35414089      -0.55363978       0.07145278
O        1.20695245       8.21981975      14.64086900  T      -0.87462110       0.35441194      -0.32739437
O        9.85936292       6.98414481      12.05651175  T      -0.21844299       0.08735428       1.30125815
O        5.16231429       6.18106554      14.54033102  T       0.49945292       0.02987960       0.40653385
O        5.60491216       5.62170417      12.17856750  T       0.55421058      -0.32990362       0.28951367
O        7.78220128       5.79686529      13.63275229  T       0.04635101       0.25981562       0.10333116
O        5.60412347       8.22512080      12.66389920  T      -0.21610130       1.23989704      -0.59902447
O        8.55641349       8.39489791      13.63821273  T       0.61782779      -0.19183069      -0.06544293
O        2.43487167       5.21572420      21.44352856  T      -0.17094072      -0.19423477       0.50352111
O        0.21161057       6.18674008      22.76011676  T      -0.29650395      -0.13334568       0.34440065
O        1.83749513       0.13054974      19.96935646  T       0.28158704       0.37863904       0.38844331
O        2.18038038       2.95195342      19.89721170  T       0.74099614       1.28493800       0.90368258
O        3.44291656       1.25628008      18.20634435  T       0.39162542       0.23741187      -0.09002641
O        0.91554181       1.49590973      18.01511763  T      -0.19597825       0.61166973       0.20767485
O        0.40179715       4.12050622      17.74215993  T       0.07448577       0.23637225       0.41018949
O        9.09086508       1.35173848      21.39761732  T       0.03719250       0.07404203       0.29562149
O        5.41692773       2.96761928      18.36646428  T      -0.08545187       0.33344259      -0.86278659
O        4.61235012       3.96422198      20.62643088  T       0.46301548      -0.21752971      -0.11525275
O        7.10089613       2.68580791      20.22304161  T      -0.34092716       0.23282517       0.51327758
O        6.43821603       0.42155897      21.41660781  T      -0.37738250       0.48108497       0.23704714
O        6.63179296       5.23817859      19.38495012  T      -0.28411085      -0.38897407       0.15441081
O        7.91529781       9.80584812      16.71634293  T       0.49238790       0.16785311      -0.70836774
O        3.85759569       7.03141177      16.86542687  T      -0.43876070      -0.32707354       0.17063690
O        3.71306897       9.42016817      21.42989311  T       0.50302944      -0.01307370      -0.02737306
O        3.20075278       7.95661239      19.09901093  T       0.04816794       0.26147601       0.33325091
O        1.28019792       6.62274973      17.77293016  T      -0.91313959       0.14214987      -0.60746289
O        3.20916269       5.27091132      18.89080382  T      -0.03682669      -0.27220959      -0.01513409
O        0.36036245       5.53928707      20.02501776  T      -0.05965638       0.34986713       1.18648804
O        1.53520823       7.67992436      21.04012612  T      -0.47911017      -0.22605614       0.72916925
O        4.77027415       8.47503450      21.91646514  T       0.72254989       0.16219217       0.62874685
O        8.01661535       0.21413843      19.38180608  T      -0.10196165      -0.21218787      -0.29289666
O        6.92545669       8.84436034      23.74915732  T       0.13230522      -0.18873441       0.21749059
O        6.21117230       5.74668736      16.88058059  T       0.36121939       0.27242975       0.36447572
O        5.76722870       0.30202964      18.18398239  T      -0.10687463      -0.32766970       0.16282085
O        8.70919448       5.97960612      17.90910955  T      -0.39523382       0.37423845      -0.01977546
O        6.97931225       7.88296006      18.42334429  T      -0.03326991       0.43554749      -0.24917052
O        2.25041734       4.51754345       3.82000419  T      -1.10186745       1.37863968      -0.25995544
O        1.48034728       2.43152076       2.53920694  T       0.03514136       0.08401223      -1.22637895
O        3.90723338       2.71500226       4.18221932  T      -0.10491343      -0.19805306       0.05925709
O        3.68991955       4.57273004       6.14323353  T      -0.54482178      -1.18754189      -0.56397967
O        1.70338000       2.92576088       5.80718688  T      -0.58566256      -0.12794426       0.21834824
O        4.82946104       1.32345277       5.86362974  T       0.37005628       0.10153181      -0.81934275
O        5.24961312       0.82523756       3.24033455  T      -0.39389025       0.23162936      -0.36207917
O        6.16198285       3.62743750       4.03499793  T       0.08093918      -0.10563417       0.19023736
O        7.07815675       1.34551999       4.64545486  T       0.26093827       0.64436209       0.96100422
O        8.99772506       2.44314972       6.27932168  T       1.42011653      -0.30639191       0.73645586
O        9.55744358       0.43002547       4.70746034  T       0.67930907       0.75401247      -0.13679267
O        0.88513807       9.78880543       2.62118862  T       0.56824713      -0.09625159      -0.68976370
O        1.19875098       8.22470363       4.63288274  T      -1.18241363       0.52412791      -0.63712422
O        9.87000000       6.98000000       2.02000000  F       0.00000000       0.00000000       0.00000000
O        5.16539296       6.16519106       4.53948635  T       0.60315313      -0.57587857       0.37843796
O        5.59000000       5.63000000       2.17000000  F       0.00000000       0.00000000       0.00000000
O        7.78061837       5.79896994       3.62529629  T      -0.01154521       0.32155623      -0.17229091
O        5.60794885       8.20795686       2.65432376  T      -0.08033302       0.66622484      -0.99519892
O        8.55019761       8.38905424       3.62686924  T       0.42422976      -0.36237583      -0.47486142
O        3.53024474       4.17648658      11.52410330  T      -0.71633577      -0.13670500      -0.22092278
O        1.14066582       4.87843602      11.35513672  T       0.00109896      -0.39320981       0.19017080
O        1.73105600       0.91241295      10.35921270  T      -0.27816921      -0.25634992       0.59897099
O        2.79025241       3.11079890       9.32129779  T      -0.07153878       0.65314418      -0.00009538
O        3.56203265       0.97388493       8.16208058  T      -0.54311406       0.50981473       0.78426242
O        1.05956530       1.64792198       7.93533824  T      -0.42075248      -0.44046671       0.20538736
O        0.43192561       4.16511842       7.88672196  T       0.06962277      -0.12535678      -0.12015970
O        9.27054660       1.31170920      11.41652603  T      -0.65587414       0.05863988      -0.87267507
O        5.93511922       2.56475473       7.78940765  T       0.54743078       0.12097678       0.31918672
O        5.27038539       4.03249316       9.71380260  T       0.28714107       0.13277022       0.20114427
O        7.34937654       2.44785728      10.03219178  T       0.38299446       0.25710116       0.08674892
O        6.79918727       0.18604341      11.31950205  T      -1.34285913      -0.40638127       0.57197745
O        7.51342675       4.84593897       8.95293151  T      -0.25308118      -0.48714099      -0.34621153
O        8.09036108       9.74537235       6.58898795  T      -0.04912397       0.55307087      -0.31337740
O        4.09066782       7.04068925       6.83110966  T       0.65661456      -0.28902639      -0.58387450
O        3.96221056       9.59387789      11.23809427  T       0.47098100      -0.21988559      -0.46731311
O        3.05998319       8.34331396       8.86259667  T      -0.01237133      -0.26452256      -0.27381545
O        1.53621799       6.62668138       7.47186233  T      -0.12872327      -0.49906742       0.01199625
O        3.34796565       5.60463462       9.02654754  T      -0.11153033      -0.08863696       0.57044719
O        0.18786793       6.48253667       9.54273987  T      -0.48263530      -0.35216399       0.35386963
O        2.25988683       7.39904386      11.09437292  T      -0.60429353      -0.69342491       0.50656473
O        4.97015613       7.37094461      10.21437751  T      -0.69280994       0.37087164       0.26743266
O        8.17911657       0.03961153       9.18836686  T      -0.00645357      -0.35613208      -0.72785915
O        7.52096886       7.20811385      11.35577428  T      -0.00365938      -0.07961134      -0.54927804
O        6.18696829       5.50254064       6.87957957  T       0.26192954       0.10013549      -0.03288877
O        5.81287689       9.89008383       8.02539141  T       0.06978129      -0.34301005      -0.19891307
O        8.91657400       6.08108663       7.11147705  T      -0.82010262       0.04736620       0.80286261
O        7.26092644       7.67392918       8.17192622  T      -0.36224624       0.12818095       0.07731809
O        3.55000000       4.18000000       1.53000000  F       0.00000000       0.00000000       0.00000000
O        1.14000000       4.89000000       1.35000000  F       0.00000000       0.00000000       0.00000000
O        9.29000000       1.31000000       1.44000000  F       0.00000000       0.00000000       0.00000000
O        6.84000000       0.20000000       1.30000000  F       0.00000000       0.00000000       0.00000000
O        3.95000000       9.60000000       1.25000000  F       0.00000000       0.00000000       0.00000000
O        2.28000000       7.42000000       1.08000000  F       0.00000000       0.00000000       0.00000000
O        7.52000000       7.21000000       1.37000000  F       0.00000000       0.00000000       0.00000000
Si       2.10722473       3.97193768      12.31959700  T       0.45604383      -0.50266481       0.00691346
Si       2.89687043       3.64358853      15.08034074  T       0.43158409      -0.39849524      -0.64534696
Si       0.88437405       1.15123173      11.75456614  T      -0.41525438       0.05048268      -0.98237693
Si       8.28172519       0.96359383      15.60800507  T       0.77364636       0.91412564      -0.09889882
Si       5.42846204       2.00099171      14.42854772  T       1.26186249       0.75113931      -0.05031317
Si       4.77968042       5.93341452      16.08381485  T      -0.63533676      -1.13446247       0.28261256
Si       0.00765408       9.15085871      13.87134306  T       0.45864964      -0.52437086       0.14438983
Si       6.20346084       5.20796397      13.68639410  T      -0.40712135      -0.18671266      -1.54214177
Si       5.42339117       9.76382277      12.07510146  T       0.13416838      -0.34938734       1.05976046
Si       8.39311516       7.03837788      12.73201313  T       0.17213335      -0.10941976      -0.52203902
Si       3.04867348       4.32125296      20.22210101  T       0.63637332      -0.53758168      -0.44742981
Si       2.12698428       1.49555115      19.11483665  T      -0.79890933      -1.37475412      -0.95341149
Si       0.48276295       2.68944187      16.98692859  T       0.14165482      -0.59536085      -1.52272540
Si       4.92103867       1.59245470      17.67157458  T       0.13530635      -0.49005473      -1.17050688
Si       5.95390738       3.76874514      19.67105616  T       0.22199216      -0.15642066       0.65708491
Si       7.64582610       1.19548978      20.63680916  T       0.99304811       0.99117025      -1.50934139
Si       2.57328233       8.73626635      20.37612557  T       0.16372913       0.36885178      -0.81030155
Si       2.86766864       6.68420845      18.12419830  T       1.61988598       0.88189402       0.28253503
Si       1.08155404       6.15724735      21.40466686  T       0.10776925      -0.23841584      -1.66908742
Si       0.19953783       5.57345627      18.39273011  T      -0.71751190      -0.40290389      -0.37360408
Si       6.19899333       9.26381950      22.46555997  T      -2.00873455      -1.07557838      -0.19518906
Si       7.12948829       6.24415210      18.15472546  T      -0.07287982       0.27525449      -0.29658878
Si       7.17620159       9.51581074      18.13357371  T      -0.19071862      -0.90175103       1.37869571
Si       2.10000000       3.98000000       2.32000000  F       0.00000000       0.00000000       0.00000000
Si       2.92433269       3.64935382       5.03987859  T       0.77969341      -0.05902018       0.52388608
Si       0.89000000       1.15000000       1.77000000  F       0.00000000       0.00000000       0.00000000
Si       8.34832151       1.04613308       5.59871253  T      -0.67451786       0.43455661      -0.06454330
Si       5.42529681       1.98654593       4.43292823  T       1.06071928      -0.21682974       0.14110781
Si       4.78665414       5.78715682       6.07529648  T       0.36662229       1.60484217       1.00216926
Si       0.01473344       9.14193212       3.88859293  T       0.98221049      -1.10874104       1.23568125
Si       6.20453698       5.20327131       3.69785599  T      -0.34216023      -0.48076006      -0.83880938
Si       5.42000000       9.77000000       2.06000000  F       0.00000000       0.00000000       0.00000000
Si       8.39642794       7.04010486       2.74647379  T       0.44227228      -0.02033191       0.38654942
Si       3.71576599       4.28531542       9.89771260  T      -0.21141263      -0.30961137       0.53780291
Si       2.30121254       1.61183592       8.99234094  T       0.64554936      -0.45975404      -1.07052177
Si       0.53832766       2.81688400       6.93940466  T      -1.44594132       0.39190894      -0.01417499
Si       5.02702347       1.19787415       7.45834390  T      -0.19659806       0.52858245       0.48668924
Si       6.58062547       3.44490185       9.03769596  T      -0.56296279       0.33194713      -0.11695401
Si       7.94617019       1.01530156      10.49796235  T       0.87372591      -0.40466225      -0.12702260
Si       3.51655916       8.23360978      10.42050634  T       1.01541654       0.18073521       0.06771910
Si       3.04314063       6.90416641       8.07020743  T      -1.72899814       0.21204469      -0.67941888
Si       0.92127015       6.44606085      10.98119555  T       0.62690736       0.34753865       0.19985468
Si       0.22348993       5.79256710       8.06542985  T       1.55099206       0.17376737      -2.21784921
Si       5.90942800       7.06944061      11.51077389  T      -0.06710110      -0.64592164       1.35893926
Si       7.41797423       6.06784619       7.83067941  T       0.50701157       0.48764884      -1.22290698
Si       7.32264469       9.31371080       7.95855030  T       0.88788068      -0.40597556       1.81625887
Si       7.93000000       1.02000000       0.50000000  F       0.00000000       0.00000000       0.00000000
Si       0.91000000       6.44000000       0.98000000  F       0.00000000       0.00000000       0.00000000
Si       5.91000000       7.08000000       1.49000000  F       0.00000000       0.00000000       0.00000000
C        4.96970156       5.00659697      25.87866063  T      -0.61583531       0.16974483     -13.17467564
F        5.79961180       6.04408352      25.87921471  T       0.25305884       0.46911328     -20.81038949
F        5.80251746       3.95224950      25.87919698  T       0.37063202      -0.61498386     -20.81355528
153
Lattice="10.0 0.0 0.0 0.0 10.0 0.0 0.0 0.0 43.74" Properties=species:S:1:pos:R:3:move_mask:L:1:momenta:R:3 etch=trj_CF2_30eV_case1 idx=0 index=0 source=trj_CF2_30eV_case1/0000/OUTCAR converged=T time_fs=9.0 pbc="T T T"
O        2.26199295       4.51489719      13.83308564  T      -0.59526315       1.15052650       0.15701190
O        1.48436388       2.44754728      12.54335466  T       0.09107930       0.49925311      -0.95039470
O        3.89668596       2.70494870      14.19334482  T      -0.44140853      -0.55005365       0.47089350
O        3.82371625       4.57545807      16.07477488  T       0.02943464       0.41365758       0.45963788
O        1.64331317       2.88510673      15.81852032  T      -0.09589837      -0.11614166       0.88586236
O        5.08776171       1.64559051      16.07214446  T      -0.39067613       0.22422265       0.83412449
O        5.23304931       0.83177552      13.25035316  T      -0.94410178       0.43784915       0.05634557
O        6.15894006       3.61846599      14.03692465  T      -0.03601698      -0.33317335       0.21771811
O        7.07650339       1.34202572      14.63696402  T       0.16442660       0.45215975       0.55901950
O        9.05858341       2.28192330      16.27669770  T      -0.36180791      -0.20325055       0.62057031
O        9.53821817       0.42045632      14.73301562  T       0.07549010       0.22229330       0.64528592
O        0.88137126       9.77004478      12.64379693  T       0.38824112      -0.56129509       0.04619666
O        1.20135603       8.22205373      14.63880821  T      -0.94611642       0.37163623      -0.34235143
O        9.85825615       6.98459700      12.06472252  T      -0.13710329       0.05818203       1.36892807
O        5.16556937       6.18123607      14.54295642  T       0.56084478       0.02510502       0.44806164
O        5.60843738       5.61956637      12.18035189  T       0.59225564      -0.36616266       0.28944411
O        7.78243637       5.79852917      13.63340988  T       0.02904847       0.28164046       0.11047848
O        5.60275334       8.23288686      12.66009235  T      -0.22938682       1.28321832      -0.63877478
O        8.56035885       8.39366976      13.63779497  T       0.66564811      -0.20789302      -0.07056874
O        2.43381680       5.21442630      21.44673337  T      -0.17160176      -0.22904777       0.53888851
O        0.20975504       6.18586868      22.76224714  T      -0.30638248      -0.15055501       0.34725904
O        1.83929480       0.13294260      19.97190107  T       0.30399110       0.39958385       0.44060677
O        2.18506481       2.95971866      19.90281432  T       0.78199249       1.23505740       0.91703773
O        3.44527147       1.25779970      18.20584347  T       0.37237554       0.25708159      -0.07183769
O        0.91423732       1.49984236      18.01646653  T      -0.22955717       0.66833533       0.23145184
O        0.40228246       4.12177302      17.74471236  T       0.08348390       0.17232816       0.41944254
O        9.09110866       1.35222624      21.39952041  T       0.04209521       0.08492604       0.32376439
O        5.41642968       2.96982143      18.36098030  T      -0.07582109       0.38404951      -0.92123871
O        4.61530474       3.96283024      20.62572632  T       0.49812344      -0.23537299      -0.11350621
O        7.09872166       2.68731907      20.22636061  T      -0.36641758       0.25923365       0.56732135
O        6.43590420       0.42469636      21.41811647  T      -0.37337149       0.54027091       0.25415953
O        6.63001688       5.23578320      19.38588588  T      -0.29312386      -0.38890584       0.14922943
O        7.91832476       9.80684402      16.71208254  T       0.49098340       0.15520115      -0.67432512
O        3.85484247       7.02931472      16.86645505  T      -0.45599568      -0.35535592       0.16257606
O        3.71630795       9.42005175      21.42968169  T       0.55140161      -0.02540055      -0.04199096
O        3.20109722       7.95830195      19.10112608  T       0.06466790       0.28845974       0.35449878
O        1.27465858       6.62371510      17.76910108  T      -0.88561793       0.17263985      -0.63754816
O        3.20892016       5.26928350      18.89063583  T      -0.04215388      -0.25563954      -0.04057444
O        0.35984944       5.54151508      20.03237590  T      -0.10996546       0.37457763       1.20335138
O        1.53226670       7.67872474      21.04474517  T      -0.47619234      -0.16041195       0.77323498
O        4.77480331       8.47601756      21.92049111  T       0.74863274       0.15633917       0.68098158
O        8.01600868       0.21279847      19.37996153  T      -0.09453279      -0.22342251      -0.30671681
O        6.92618736       8.84318318      23.75035498  T       0.10361307      -0.19424468       0.16955140
O        6.21338278       5.74846120      16.88285326  T       0.35628114       0.30521430       0.37394962
O        5.76653989       0.29989035      18.18504356  T      -0.11740966      -0.36911902       0.18276023
O        8.70669128       5.98201868      17.90900542  T      -0.41864923       0.41106555      -0.01372978
O        6.97908612       7.88565022      18.42175472  T      -0.04058806       0.43782934      -0.26792407
O        2.24338334       4.52630747       3.81850961  T      -1.18695541       1.47230474      -0.22433896
O        1.48061070       2.43210560       2.53125459  T       0.05133575       0.10723949      -1.36311116
O        3.90656121       2.71371991       4.18255888  T      -0.11383389      -0.21946057       0.05057662
O        3.68676361       4.56547418       6.13975672  T      -0.47709508      -1.16820445      -0.56452194
O        1.69969667       2.92499358       5.80850235  T      -0.61194783      -0.12089083       0.20849769
O        4.83184743       1.32405577       5.85866401  T       0.40669893       0.09393022      -0.79221179
O        5.24709189       0.82677569       3.23802265  T      -0.42643541       0.26983840      -0.39011720
O        6.16251142       3.62674523       4.03621671  T       0.09126419      -0.11997927       0.20632545
O        7.07974360       1.34974318       4.65159910  T       0.25380373       0.73172452       1.03803733
O        9.00678349       2.44110512       6.28403671  T       1.52602468      -0.36060330       0.79745612
O        9.56181751       0.43485195       4.70652222  T       0.74411878       0.81676978      -0.16937429
O        0.88877306       9.78810876       2.61680300  T       0.61472072      -0.13167134      -0.73706654
O        1.19120252       8.22798700       4.62883638  T      -1.27264637       0.54226869      -0.67840174
O        9.87000000       6.98000000       2.02000000  F       0.00000000       0.00000000       0.00000000
O        5.16928837       6.16147824       4.54194280  T       0.66502350      -0.63275348       0.42151586
O        5.59000000       5.63000000       2.17000000  F       0.00000000       0.00000000       0.00000000
O        7.78048648       5.80099728       3.62420267  T      -0.03240104       0.33752814      -0.18341955
O        5.60743060       8.21219289       2.64791728  T      -0.08835917       0.71137625      -1.08993974
O        8.55297621       8.38682372       3.62386750  T       0.48095371      -0.36175772      -0.50119521
O        3.52571561       4.17560559      11.52269543  T      -0.75625824      -0.15006025      -0.23695456
O        1.14063481       4.87598918      11.35634872  T      -0.01178485      -0.40187969       0.20418914
O        1.72937322       0.91081459      10.36284095  T      -0.26775568      -0.26329128       0.57825258
O        2.78966803       3.11477587       9.32121858  T      -0.12052150       0.63806276      -0.02692800
O        3.55879353       0.97711506       8.16700966  T      -0.50633062       0.54040921       0.81782525
O        1.05683073       1.64512863       7.93666036  T      -0.46973373      -0.46805529       0.22500956
O        0.43236714       4.16441483       7.88595759  T       0.07402881      -0.10187598      -0.12855963
O        9.26648958       1.31207639      11.41097104  T      -0.66147815       0.06076432      -0.93415443
O        5.93858375       2.56543458       7.79139147  T       0.57927544       0.09872299       0.32538093
O        5.27206050       4.03340357       9.71518347  T       0.25558701       0.16439760       0.24974427
O        7.35187209       2.44944122      10.03274965  T       0.42970280       0.25740974       0.09467227
O        6.79090431       0.18362578      11.32290661  T      -1.34764333      -0.37767815       0.53198328
O        7.51179965       4.84289094       8.95058829  T      -0.27649330      -0.50358756      -0.41837609
O        8.08995086       9.74887046       6.58714244  T      -0.08575258       0.58466295      -0.28470572
O        4.09465891       7.03896260       6.82758702  T       0.63819494      -0.27000025      -0.55869397
O        3.96524130       9.59249370      11.23507613  T       0.51553610      -0.22994964      -0.51519526
O        3.05988419       8.34160118       8.86085571  T      -0.02020101      -0.29316091      -0.29240041
O        1.53542307       6.62350222       7.47182940  T      -0.12920414      -0.53484532      -0.02515742
O        3.34719527       5.60424412       9.03011521  T      -0.14010324      -0.03582750       0.58931781
O        0.18474743       6.48017355       9.54481375  T      -0.53299133      -0.41847173       0.31837828
O        2.25627061       7.39476452      11.09756396  T      -0.56827647      -0.69646604       0.53123164
O        4.96582046       7.37324081      10.21625336  T      -0.71611050       0.37467981       0.34568867
O        8.17913122       0.03739755       9.18386697  T       0.01265043      -0.36295404      -0.73322854
O        7.52088140       7.20758922      11.35224377  T      -0.02579849      -0.09141765      -0.59962866
O        6.18864116       5.50318936       6.87934077  T       0.28232266       0.11113198      -0.04531089
O        5.81326662       9.88793843       8.02407853  T       0.05635433      -0.35432838      -0.22894506
O        8.91145565       6.08140072       7.11659323  T      -0.84223537       0.05505031       0.86122162
O        7.25857614       7.67471372       8.17242920  T      -0.40309054       0.12640116       0.08652020
O        3.55000000       4.18000000       1.53000000  F       0.00000000       0.00000000       0.00000000
O        1.14000000       4.89000000       1.35000000  F       0.00000000       0.00000000       0.00000000
O        9.29000000       1.31000000       1.44000000  F       0.00000000       0.00000000       0.00000000
O        6.84000000       0.20000000       1.30000000  F       0.00000000       0.00000000       0.00000000
O        3.95000000       9.60000000       1.25000000  F       0.00000000       0.00000000       0.00000000
O        2.28000000       7.42000000       1.08000000  F       0.00000000       0.00000000       0.00000000
O        7.52000000       7.21000000       1.37000000  F       0.00000000       0.00000000       0.00000000
Si       2.10886113       3.97013872      12.31965748  T       0.47756737      -0.52365265       0.02894755
Si       2.89841940       3.64216347      15.07798464  T       0.45232260      -0.41448133      -0.70049550
Si       0.88282026       1.15138745      11.75102292  T      -0.47350367       0.03764734      -1.04045321
Si       8.28453956       0.96693488      15.60767676  T       0.83362326       0.99430523      -0.08761032
Si       5.43309697       2.00375028      14.42840468  T       1.38665676       0.82513148      -0.03033016
Si       4.77741187       5.92925120      16.08487305  T      -0.65890643      -1.24415878       0.32267189
Si       0.00928216       9.14902256      13.87191343  T       0.47009672      -0.52218654       0.18219014
Si       6.20200427       5.20723298      13.68080592  T      -0.42384964      -0.23247600      -1.64800772
Si       5.42378909       9.76261944      12.07901818  T       0.09002889      -0.33480766       1.17894730
Si       8.39370827       7.03797808      12.73011774  T       0.16553473      -0.11892035      -0.56039435
Si       3.05105669       4.31934180      20.22054281  T       0.72722185      -0.55212048      -0.44038884
Si       2.12413432       1.49074334      19.11139668  T      -0.82700012      -1.36684302      -1.01111613
Si       0.48323857       2.68736139      16.98138858  T       0.12868215      -0.59080878      -1.64109669
Si       4.92159134       1.59067741      17.66736923  T       0.18196917      -0.52490521      -1.22885565
Si       5.95468380       3.76810983      19.67337970  T       0.22065462      -0.20819865       0.66788476
Si       7.64939717       1.19907091      20.63133381  T       1.04550428       1.05349306      -1.61733343
Si       2.57383091       8.73757221      20.37327547  T       0.14832226       0.37624318      -0.81447410
Si       2.87339040       6.68736744      18.12523940  T       1.64385886       0.92091041       0.31288835
Si       1.08195208       6.15633089      21.39861203  T       0.11997139      -0.28608552      -1.78740220
Si       0.19690275       5.57201956      18.39145878  T      -0.78804316      -0.41664231      -0.35061198
Si       6.19172374       9.25991196      22.46493241  T      -2.14142413      -1.15486593      -0.16133082
Si       7.12918498       6.24515634      18.15369585  T      -0.10160591       0.29843944      -0.28985545
Si       7.17555387       9.51256143      18.13844002  T      -0.17838126      -0.95299648       1.39686242
Si       2.10000000       3.98000000       2.32000000  F       0.00000000       0.00000000       0.00000000
Si       2.92701490       3.64911266       5.04166571  T       0.74756870      -0.08010285       0.49327287
Si       0.89000000       1.15000000       1.77000000  F       0.00000000       0.00000000       0.00000000
Si       8.34596510       1.04773917       5.59849988  T      -0.66777197       0.48320226      -0.05602350
Si       5.42920562       1.98576923       4.43339204  T       1.17315913      -0.22625865       0.12228294
Si       4.78794579       5.79282928       6.07892802  T       0.37126380       1.63018321       1.07091631
Si       0.01830705       9.13798206       3.89309365  T       1.05807178      -1.14423973       1.33461852
Si       6.20330880       5.20148601       3.69476852  T      -0.35877920      -0.54002381      -0.92552972
Si       5.42000000       9.77000000       2.06000000  F       0.00000000       0.00000000       0.00000000
Si       8.39805534       7.04000449       2.74784157  T       0.48777587      -0.03781145       0.39343185
Si       3.71505246       4.28419017       9.89969260  T      -0.19500971      -0.33287381       0.59335229
Si       2.30346114       1.61023880       8.98853186  T       0.63486351      -0.45000202      -1.10245146
Si       0.53306083       2.81825366       6.93937946  T      -1.56140892       0.38880660       0.00082963
Si       5.02631251       1.19980441       7.46006218  T      -0.20900479       0.57390540       0.49350005
Si       6.57862929       3.44611719       9.03730570  T      -0.57553065       0.36234201      -0.10469171
Si       7.94917401       1.01374985      10.49749349  T       0.83680076      -0.48337733      -0.14174715
Si       3.52018538       8.23421957      10.42077859  T       1.05366840       0.16644541       0.08812014
Si       3.03688992       6.90488339       8.06770972  T      -1.83959806       0.19608651      -0.74746159
Si       0.92344350       6.44726883      10.98202317  T       0.61118634       0.34021838       0.27497606
Si       0.22912394       5.79319388       8.05741349  T       1.66562588       0.18339492      -2.35906584
Si       5.90915797       7.06714056      11.51571070  T      -0.08780240      -0.66597920       1.46046100
Si       7.41979233       6.06959559       7.82627864  T       0.52989480       0.51090521      -1.28890662
Si       7.32591372       9.31223836       7.96509555  T       0.97942863      -0.43506751       1.91982194
Si       7.93000000       1.02000000       0.50000000  F       0.00000000       0.00000000       0.00000000
Si       0.91000000       6.44000000       0.98000000  F       0.00000000       0.00000000       0.00000000
Si       5.91000000       7.08000000       1.49000000  F       0.00000000       0.00000000       0.00000000
C        4.96493298       5.00800206      25.77091040  T      -0.54425281       0.17295050     -13.17619048
F        5.80083091       6.04649371      25.77161865  T       0.21577627       0.46068663     -20.81079802
F        5.80435295       3.94908365      25.77158477  T       0.33602280      -0.60597125     -20.81357045
153
Lattice="10.0 0.0 0.0 0.0 10.0 0.0 0.0 0.0 43.74" Properties=species:S:1:pos:R:3:move_mask:L:1:momenta:R:3 etch=trj_CF2_30eV_case1 idx=0 index=0 source=trj_CF2_30eV_case1/0000/OUTCAR converged=T time_fs=10.0 pbc="T T T"
O        2.25821438       4.52219263      13.83415396  T      -0.63430180       1.22320850       0.19143302
O        1.48486533       2.45060053      12.53722188  T       0.07097335       0.49263400      -1.04671787
O        3.89388465       2.70137864      14.19637359  T      -0.47006174      -0.61291292       0.51514601
O        3.82376443       4.57793451      16.07765285  T      -0.01594502       0.38967764       0.47634654
O        1.64289278       2.88443391      15.82405148  T      -0.03785909      -0.10189491       0.91233017
O        5.08530229       1.64707093      16.07709608  T      -0.40932642       0.25837627       0.77170675
O        5.22697866       0.83462292      13.25077113  T      -1.03250210       0.48965342       0.08041600
O        6.15870967       3.61642343      14.03828776  T      -0.03899623      -0.33032345       0.22547221
O        7.07748165       1.34497447      14.64051466  T       0.15323268       0.50853351       0.59658550
O        9.05630494       2.28072604      16.28073532  T      -0.37952747      -0.18494764       0.69471598
O        9.53888273       0.42171005      14.73696101  T       0.14316458       0.18404593       0.63691725
O        0.88384982       9.76661411      12.64398341  T       0.41836858      -0.55343074       0.01318343
O        1.19536004       8.22436498      14.63668202  T      -1.00454566       0.37940458      -0.34855785
O        9.85772841       6.98484193      12.07327584  T      -0.03027256       0.01999954       1.41308852
O        5.16920026       6.18136757      14.54582580  T       0.62185893       0.01708047       0.48592574
O        5.61216431       5.61721169      12.18209656  T       0.61975645      -0.40050575       0.27631524
O        7.78254592       5.80031778      13.63410444  T       0.00547278       0.30043907       0.11531605
O        5.60131582       8.24080611      12.65608073  T      -0.23797679       1.28931179      -0.66543468
O        8.56456847       8.39234865      13.63734672  T       0.70377978      -0.22214285      -0.07542671
O        2.43277569       5.21290704      21.45012919  T      -0.16645318      -0.26628503       0.56568754
O        0.20786481       6.18489095      22.76435658  T      -0.30773469      -0.16800107       0.33751021
O        1.84122093       0.13544375      19.97476778  T       0.32277737       0.41400814       0.49330930
O        2.18995142       2.96702390      19.90842919  T       0.80677944       1.13574801       0.90803214
O        3.44745856       1.25943135      18.20547475  T       0.33729115       0.27390691      -0.04714953
O        0.91271670       1.50410519      18.01795625  T      -0.26643728       0.71920488       0.25345034
O        0.40282064       4.12258436      17.74729252  T       0.09163447       0.08857014       0.41942935
O        9.09138114       1.35278210      21.40158686  T       0.04656360       0.09622720       0.34877579
O        5.41600645       2.97233536      18.35517663  T      -0.06112187       0.43480110      -0.96700039
O        4.61845239       3.96133660      20.62504502  T       0.52581531      -0.25071373      -0.10762213
O        7.09640745       2.68898868      20.23000162  T      -0.38638064       0.28439231       0.61813695
O        6.43365455       0.42818438      21.41972693  T      -0.35728356       0.59496047       0.27037377
O        6.62820717       5.23342770      19.38677063  T      -0.29510500      -0.37606645       0.13785328
O        7.92130066       9.80774095      16.70811267  T       0.47604187       0.13583570      -0.61432221
O        3.85201852       7.02705556      16.86740509  T      -0.46174687      -0.37986420       0.14511215
O        3.71983271       9.41985071      21.42937266  T       0.59613164      -0.04062214      -0.05912466
O        3.20155355       7.96014934      19.10335025  T       0.08465882       0.31279483       0.36865339
O        1.26937804       6.62487175      17.76512567  T      -0.82959525       0.20424274      -0.65510527
O        3.20864552       5.26779634      18.89029639  T      -0.04724638      -0.22655278      -0.07080225
O        0.35898570       5.54387180      20.03971997  T      -0.17405431       0.39160131       1.18172544
O        1.52938987       7.67799679      21.04959791  T      -0.45824391      -0.07283737       0.80539523
O        4.77942091       8.47693559      21.92480783  T       0.75085407       0.14078327       0.72322922
O        8.01546635       0.21140434      19.37805292  T      -0.08097209      -0.22978718      -0.31374043
O        6.92670844       8.84197980      23.75120906  T       0.06425529      -0.19731867       0.10587156
O        6.21552083       5.75043273      16.88515276  T       0.33765598       0.33674809       0.37321615
O        5.76578785       0.29749864      18.18622525  T      -0.12751024      -0.40980549       0.20203259
O        8.70407021       5.98464725      17.90894513  T      -0.43353526       0.44456058      -0.00551576
O        6.97881174       7.88830532      18.42006196  T      -0.04901166       0.42402279      -0.28274585
O        2.23586826       4.53558111       3.81727337  T      -1.25865221       1.54462502      -0.17629859
O        1.48098459       2.43284529       2.52248031  T       0.07114981       0.13448245      -1.49401181
O        3.90583780       2.71230988       4.18283255  T      -0.12160911      -0.23961645       0.03782975
O        3.68412188       4.55846409       6.13634405  T      -0.37780773      -1.10796807      -0.54302835
O        1.69588841       2.92428769       5.80973058  T      -0.62647222      -0.10798149       0.19007445
O        4.83444826       1.32459663       5.85396213  T       0.43986213       0.08137315      -0.73382120
O        5.24438724       0.82855491       3.23555369  T      -0.45357266       0.31010526      -0.41324306
O        6.16310367       3.62596311       4.03752647  T       0.10168016      -0.13492356       0.21982664
O        7.08125077       1.35450849       4.65817503  T       0.23497757       0.82093587       1.10151720
O        9.01641196       2.43871161       6.28909149  T       1.60516246      -0.42013493       0.84685648
O        9.56656528       0.44004004       4.70537539  T       0.80087898       0.87190644      -0.20464863
O        0.89267481       9.78717936       2.61215604  T       0.65520837      -0.17190299      -0.77502363
O        1.18316710       8.23132717       4.62458124  T      -1.34041439       0.54214933      -0.70473700
O        9.87000000       6.98000000       2.02000000  F       0.00000000       0.00000000       0.00000000
O        5.17355075       6.15743025       4.54465939  T       0.72266473      -0.68501457       0.46312577
O        5.59000000       5.63000000       2.17000000  F       0.00000000       0.00000000       0.00000000
O        7.78021060       5.80310061       3.62304964  T      -0.05841540       0.34627256      -0.19164645
O        5.60686531       8.21666724       2.64095970  T      -0.09563937       0.74365607      -1.17454500
O        8.55610312       8.38463766       3.62073335  T       0.53756992      -0.34787446      -0.51798186
O        3.52098776       4.17464630      11.52120181  T      -0.78096519      -0.16220119      -0.24875940
O        1.14051542       4.87352123      11.35763945  T      -0.02763025      -0.40016576       0.21585093
O        1.72779096       0.90918991      10.36626580  T      -0.24549347      -0.26505517       0.53289144
O        2.78875635       3.11859173       9.32095526  T      -0.17790433       0.60111642      -0.05993602
O        3.55587429       0.98049946       8.17208554  T      -0.43887826       0.55995609       0.83201700
O        1.05380100       1.64218939       7.93809814  T      -0.51682922      -0.48798080       0.24305730
O        0.43283288       4.16388711       7.88514590  T       0.07752979      -0.06818027      -0.13563825
O        9.26246829       1.31245331      11.40508415  T      -0.64414244       0.06183511      -0.98067387
O        5.94221298       2.56594951       7.79338624  T       0.60110979       0.06738994       0.32283507
O        5.27349545       4.03451725       9.71687953  T       0.20930241       0.19884766       0.30369400
O        7.35464983       2.45100365      10.03335067  T       0.47480057       0.25022744       0.10071202
O        6.78271628       0.18144017      11.32598404  T      -1.31240376      -0.33110717       0.46581225
O        7.51003647       4.83977742       8.94778190  T      -0.29739619      -0.50854130      -0.49694721
O        8.08929634       9.75253356       6.58552260  T      -0.12850913       0.60691461      -0.24011014
O        4.09844986       7.03741026       6.82429946  T       0.59144289      -0.23204726      -0.50745357
O        3.96853305       9.59106583      11.23177539  T       0.55600619      -0.23401124      -0.55928764
O        3.05973190       8.33971708       8.85901595  T      -0.02971799      -0.32029572      -0.30592239
O        1.53464264       6.62013261       7.47152720  T      -0.12386582      -0.56089680      -0.07596780
O        3.34623863       5.60422102       9.03375994  T      -0.17214685       0.03067356       0.59574853
O        0.18133357       6.47739049       9.54661740  T      -0.57797008      -0.48879197       0.26629470
O        2.25296342       7.39053346      11.10087922  T      -0.50388026      -0.67785345       0.54716720
O        4.96139883       7.37551954      10.21864253  T      -0.72070895       0.36504486       0.43448969
O        8.17928761       0.03517704       9.17941331  T       0.03993554      -0.35818124      -0.71263878
O        7.52064269       7.20698993      11.34842418  T      -0.05281384      -0.10394974      -0.64329796
O        6.19042773       5.50390474       6.87901905  T       0.29894909       0.12186758      -0.05988484
O        5.81356150       9.88574839       8.02257865  T       0.03909918      -0.35762571      -0.25976437
O        8.90628562       6.08176372       7.12202489  T      -0.83648664       0.06331846       0.90540001
O        7.25597998       7.67547100       8.17298854  T      -0.44229408       0.11927312       0.09568509
O        3.55000000       4.18000000       1.53000000  F       0.00000000       0.00000000       0.00000000
O        1.14000000       4.89000000       1.35000000  F       0.00000000       0.00000000       0.00000000
O        9.29000000       1.31000000       1.44000000  F       0.00000000       0.00000000       0.00000000
O        6.84000000       0.20000000       1.30000000  F       0.00000000       0.00000000       0.00000000
O        3.95000000       9.60000000       1.25000000  F       0.00000000       0.00000000       0.00000000
O        2.28000000       7.42000000       1.08000000  F       0.00000000       0.00000000       0.00000000
O        7.52000000       7.21000000       1.37000000  F       0.00000000       0.00000000       0.00000000
Si       2.11055226       3.96828909      12.31980718  T       0.48716548      -0.53152577       0.05800922
Si       2.90002334       3.64070084      15.07544959  T       0.46293238      -0.41986707      -0.74759560
Si       0.88106069       1.15148976      11.74730741  T      -0.53285006       0.01995427      -1.08098454
Si       8.28754385       0.97053597      15.60739936  T       0.88216503       1.06258871      -0.06980590
Si       5.43815007       2.00675626      14.42834200  T       1.50083931       0.89251272      -0.00446295
Si       4.77508907       5.92472487      16.08607270  T      -0.66631310      -1.34177271       0.36342874
Si       0.01092942       9.14722601      13.87261883  T       0.46968601      -0.50172923       0.22122009
Si       6.20050775       5.20633094      13.67489930  T      -0.42985849      -0.28451297      -1.72372669
Si       5.42400133       9.76150526      12.08334139  T       0.02800390      -0.29786288       1.29191748
Si       8.39426452       7.03754772      12.72810140  T       0.15112989      -0.12687685      -0.59124797
Si       3.05376508       4.31740985      20.21903910  T       0.82234747      -0.54934448      -0.41635718
Si       2.12122164       1.48603302      19.10777849  T      -0.83479896      -1.31971827      -1.05549116
Si       0.48365352       2.68532902      16.97547434  T       0.10698310      -0.56811854      -1.73644210
Si       4.92231817       1.58879092      17.66301167  T       0.23467892      -0.55252206      -1.25712791
Si       5.95544334       3.76728170      19.67570618  T       0.21244881      -0.26644967       0.65873909
Si       7.65311908       1.20284045      20.62552163  T       1.07940525       1.09891886      -1.70184365
Si       2.57431055       8.73888915      20.37045767  T       0.12442351       0.37539442      -0.79185096
Si       2.87912089       6.69062922      18.12638776  T       1.62533447       0.94075647       0.34397517
Si       1.08239444       6.15524469      21.39220028  T       0.13326697      -0.33510825      -1.87255451
Si       0.19403354       5.57055372      18.39029244  T      -0.85120243      -0.41955907      -0.31405240
Si       6.18405553       9.25576676      22.46444415  T      -2.23624874      -1.21081883      -0.11588820
Si       7.12877145       6.24623635      18.15271161  T      -0.13591080       0.31857453      -0.27062328
Si       7.17496066       9.50916426      18.14330374  T      -0.15978862      -0.98622014       1.37756699
Si       2.10000000       3.98000000       2.32000000  F       0.00000000       0.00000000       0.00000000
Si       2.92952429       3.64878598       5.04330163  T       0.68107103      -0.10803054       0.43764012
Si       0.89000000       1.15000000       1.77000000  F       0.00000000       0.00000000       0.00000000
Si       8.34368148       1.04950853       5.59832696  T      -0.63267607       0.52768556      -0.04173703
Si       5.43349469       1.98496963       4.43377314  T       1.27796062      -0.22986337       0.09391938
Si       4.78924854       5.79850957       6.08276593  T       0.37353123       1.60952877       1.11993766
Si       0.02211414       9.13396312       3.89790778  T       1.11520421      -1.14781336       1.41455933
Si       6.20203544       5.19949473       3.69138944  T      -0.36798236      -0.59848474      -1.00537902
Si       5.42000000       9.77000000       2.06000000  F       0.00000000       0.00000000       0.00000000
Si       8.39983652       7.03983609       2.74921317  T       0.53016604      -0.05919487       0.38874515
Si       3.71441011       4.28299297       9.90185582  T      -0.17112422      -0.35065564       0.64224705
Si       2.30562089       1.60870879       8.98465954  T       0.59448082      -0.42140950      -1.10676249
Si       0.52743355       2.81958948       6.93941720  T      -1.65133905       0.37273037       0.02200258
Si       5.02556753       1.20188053       7.46178254  T      -0.21588283       0.61184693       0.48808070
Si       6.57661699       3.44743217       9.03697270  T      -0.57225426       0.38884639      -0.08415613
Si       7.95198224       1.01191718      10.49696627  T       0.76208122      -0.56498811      -0.16062971
Si       3.52390302       8.23476571      10.42112295  T       1.06766880       0.14452489       0.10870677
Si       3.03030717       6.90552768       8.06498800  T      -1.91867458       0.17066991      -0.80723242
Si       0.92551825       6.44842273      10.98312649  T       0.57067695       0.31650539       0.35693174
Si       0.23510930       5.79384171       8.04897036  T       1.75131888       0.18549033      -2.46177453
Si       5.90881114       7.06480197      11.52096810  T      -0.11095462      -0.66788299       1.54216873
Si       7.42166367       6.07140952       7.82169147  T       0.53708159       0.52461954      -1.32936810
Si       7.32948211       9.31067284       7.97193935  T       1.05847106      -0.45928885       1.98676869
Si       7.93000000       1.02000000       0.50000000  F       0.00000000       0.00000000       0.00000000
Si       0.91000000       6.44000000       0.98000000  F       0.00000000       0.00000000       0.00000000
Si       5.91000000       7.08000000       1.49000000  F       0.00000000       0.00000000       0.00000000
C        4.96087723       5.00941335      25.66314984  T      -0.44237350       0.17127942     -13.17726877
F        5.80182090       6.04882646      25.66401848  T       0.16480206       0.43936634     -20.81189968
F        5.80596500       3.94601382      25.66397481  T       0.28463218      -0.57815757     -20.81266632
153
Lattice="10.0 0.0 0.0 0.0 10.0 0.0 0.0 0.0 43.74" Properties=species:S:1:pos:R:3:move_mask:L:1:momenta:R:3 etch=trj_CF2_30eV_case1 idx=0 index=0 source=trj_CF2_30eV_case1/0000/OUTCAR converged=T time_fs=11.0 pbc="T T T"
O        2.25421807       4.52988786      13.83543982  T      -0.66615440       1.28064260       0.22769994
O        1.48522246       2.45356908      12.53050947  T       0.04414480       0.47179733      -1.13907783
O        3.89092530       2.69742296      14.19966355  T      -0.49283401      -0.67560792       0.55584896
O        3.82349818       4.58020824      16.08060846  T      -0.07292068       0.34761675       0.48496260
O        1.64288067       2.88386680      15.82968546  T       0.03703005      -0.08179274       0.91928549
O        5.08274748       1.64876641      16.08154772  T      -0.42175907       0.29422553       0.67150392
O        5.22038128       0.83778695      13.25134625  T      -1.11557948       0.54088595       0.10742809
O        6.15846158       3.61442917      14.03968432  T      -0.04179183      -0.31744611       0.22857607
O        7.07837568       1.34827080      14.64427922  T       0.13721645       0.56528507       0.62876421
O        9.05393170       2.27967055      16.28522758  T      -0.39279312      -0.15714801       0.76852260
O        9.53999659       0.42269720      14.74080728  T       0.22148771       0.13589419       0.61338822
O        0.88649973       9.76327707      12.64394591  T       0.44394790      -0.53101783      -0.02653782
O        1.18904846       8.22669258      14.63454637  T      -1.04870954       0.37680188      -0.34531002
O        9.85792766       6.98482720      12.08203210  T       0.09904678      -0.02619080       1.43542235
O        5.17320430       6.18143875      14.54891527  T       0.68237333       0.00538164       0.51968085
O        5.61602576       5.61465270      12.18371728  T       0.63596048      -0.43266686       0.24885788
O        7.78249195       5.80221249      13.63482084  T      -0.02415480       0.31620986       0.11753836
O        5.59984089       8.24864300      12.65194937  T      -0.24151342       1.25610681      -0.67751764
O        8.56898093       8.39094516      13.63686876  T       0.73163410      -0.23476373      -0.08030199
O        2.43178387       5.21115254      21.45366267  T      -0.15560826      -0.30560451       0.58370107
O        0.20599333       6.18380520      22.76636697  T      -0.30024232      -0.18573792       0.31499251
O        1.84325135       0.13801504      19.97795870  T       0.33798158       0.42259112       0.54611920
O        2.19494016       2.97357786      19.91392537  T       0.81533376       0.99125519       0.87882025
O        3.44938682       1.26115766      18.20527483  T       0.28853457       0.28793420      -0.01709889
O        0.91095893       1.50866221      18.01957427  T      -0.30683967       0.76415515       0.27315165
O        0.40340521       4.12282936      17.74984727  T       0.09850995      -0.01142260       0.41144375
O        9.09167911       1.35340861      21.40379650  T       0.05034680       0.10794112       0.37035859
O        5.41568833       2.97515846      18.34912976  T      -0.04164476       0.48453703      -1.00058283
O        4.62174656       3.95975667      20.62441375  T       0.54582931      -0.26346031      -0.09708451
O        7.09398845       2.69080824      20.23394420  T      -0.40050352       0.30802659       0.66549729
O        6.43153836       0.43199003      21.42143651  T      -0.33010595       0.64343430       0.28662256
O        6.62640610       5.23118862      19.38756751  T      -0.29039453      -0.35115782       0.12070576
O        7.92414730       9.80850164      16.70458238  T       0.44920327       0.11109707      -0.53183213
O        3.84919492       7.02465765      16.86821845  T      -0.45589671      -0.40055698       0.11804989
O        3.72362109       9.41954761      21.42895139  T       0.63728937      -0.05862494      -0.07849868
O        3.20214375       7.96213680      19.10563825  T       0.10828763       0.33400022       0.37521837
O        1.26451822       6.62622278      17.76108107  T      -0.74942919       0.23571120      -0.66009459
O        3.20834084       5.26652350      18.88975946  T      -0.05190896      -0.18609070      -0.10465106
O        0.35768467       5.54630712      20.04681177  T      -0.25246976       0.40004524       1.12122779
O        1.52666606       7.67786708      21.05461330  T      -0.42666582       0.03382686       0.82640061
O        4.78397249       8.47772541      21.92935032  T       0.72669273       0.11436787       0.75431840
O        8.01502636       0.20998658      19.37612218  T      -0.06119667      -0.23110271      -0.31394435
O        6.92695875       8.84076497      23.75162810  T       0.01572793      -0.19796985       0.02820811
O        6.21750335       5.75259295      16.88741673  T       0.30573186       0.36659914       0.36244033
O        5.76497455       0.29486074      18.18752250  T      -0.13741699      -0.44921001       0.22034210
O        8.70138499       5.98747069      17.90894158  T      -0.43949372       0.47450719       0.00472130
O        6.97848199       7.89082538      18.41829078  T      -0.05864053       0.39383373      -0.29343796
O        2.22795300       4.54523315       3.81636331  T      -1.31741804       1.59559086      -0.11862795
O        1.48149147       2.43376476       2.51292167  T       0.09466766       0.16579993      -1.61852613
O        3.90507002       2.71078035       4.18301608  T      -0.12830818      -0.25835435       0.02127525
O        3.68217901       4.55194144       6.13313061  T      -0.25013055      -1.01018623      -0.49979828
O        1.69202526       2.92367830       5.81082162  T      -0.62999987      -0.08952828       0.16400648
O        4.83724149       1.32504653       5.84970790  T       0.46934749       0.06443452      -0.64703002
O        5.24153341       0.83058675       3.23295766  T      -0.47497734       0.35204976      -0.43153815
O        6.16376009       3.62508716       4.03891053  T       0.11216172      -0.15055937       0.23048387
O        7.08260696       1.35982671       4.66509795  T       0.20472609       0.91178119       1.15103569
O        9.02643556       2.43593518       6.29441033  T       1.65411429      -0.48541803       0.88321188
O        9.57163398       0.44554491       4.70400564  T       0.84845224       0.92012119      -0.24183632
O        0.89680781       9.78599066       2.60730269  T       0.69015431      -0.21591784      -0.80449747
O        1.17479266       8.23460435       4.62021538  T      -1.38251579       0.52131491      -0.71411894
O        9.87000000       6.98000000       2.02000000  F       0.00000000       0.00000000       0.00000000
O        5.17815371       6.15307607       4.54762611  T       0.77595739      -0.73247066       0.50292183
O        5.59000000       5.63000000       2.17000000  F       0.00000000       0.00000000       0.00000000
O        7.77975974       5.80523512       3.62185485  T      -0.08934465       0.34768128      -0.19704521
O        5.60625779       8.22129769       2.63351607  T      -0.10210881       0.76205593      -1.24811007
O        8.55957539       8.38257729       3.61752523  T       0.59328509      -0.32089339      -0.52535084
O        3.51615597       4.17361631      11.51965003  T      -0.79008737      -0.17308846      -0.25579655
O        1.14029058       4.87109427      11.35899512  T      -0.04605372      -0.38867334       0.22539726
O        1.72638038       0.90756845      10.36933968  T      -0.21198218      -0.26238614       0.46425488
O        2.78747037       3.12212060       9.32047241  T      -0.24212183       0.54519562      -0.09825005
O        3.55346253       0.98396890       8.17718893  T      -0.34123268       0.56809405       0.82686301
O        1.05048883       1.63915130       7.93964180  T      -0.56167442      -0.50027268       0.25949186
O        0.43331771       4.16359562       7.88429385  T       0.08028522      -0.02513801      -0.14179290
O        9.25862429       1.31283393      11.39895869  T      -0.60379384       0.06199632      -1.01184703
O        5.94594627       2.56624648       7.79534003  T       0.61326486       0.02794327       0.31218315
O        5.27460702       4.03584905       9.71892123  T       0.15078305       0.23526873       0.36214765
O        7.35769786       2.45250102      10.03398170  T       0.51761905       0.23639816       0.10435174
O        6.77485981       0.17959069      11.32858114  T      -1.24038028      -0.26859613       0.37609713
O        7.50815280       4.83666757       8.94447559  T      -0.31573693      -0.50252096      -0.58103984
O        8.08836330       9.75630623       6.58422164  T      -0.17625117       0.62051612      -0.18117673
O        4.10186822       7.03615077       6.82140337  T       0.51706181      -0.17458954      -0.43152732
O        3.97206080       9.58963276      11.22821667  T       0.59242840      -0.23155312      -0.59915429
O        3.05951621       8.33767146       8.85710974  T      -0.04083297      -0.34574282      -0.31397398
O        1.53391456       6.61663550       7.47086811  T      -0.11205065      -0.57621774      -0.14160431
O        3.34507555       5.60464263       9.03740903  T      -0.20726560       0.10855067       0.59101538
O        0.17766311       6.47416577       9.54805698  T      -0.61635549      -0.56214795       0.20035091
O        2.25013426       7.38648028      11.10426751  T      -0.41301876      -0.63883401       0.55518938
O        4.95700730       7.37769633      10.22160677  T      -0.70628655       0.34139438       0.53279068
O        8.17963935       0.03302216       9.17516714  T       0.07646089      -0.34156228      -0.66562981
O        7.52022502       7.20631128      11.34435893  T      -0.08392200      -0.11727947      -0.67951491
O        6.19230467       5.50468543       6.87860158  T       0.31176085       0.13241817      -0.07646572
O        5.81374186       9.88356151       8.02088806  T       0.01931698      -0.35341970      -0.29098674
O        8.90124181       6.08217949       7.12768138  T      -0.80081796       0.07225482       0.93427878
O        7.25314870       7.67616792       8.17360413  T      -0.47964615       0.10674508       0.10484915
O        3.55000000       4.18000000       1.53000000  F       0.00000000       0.00000000       0.00000000
O        1.14000000       4.89000000       1.35000000  F       0.00000000       0.00000000       0.00000000
O        9.29000000       1.31000000       1.44000000  F       0.00000000       0.00000000       0.00000000
O        6.84000000       0.20000000       1.30000000  F       0.00000000       0.00000000       0.00000000
O        3.95000000       9.60000000       1.25000000  F       0.00000000       0.00000000       0.00000000
O        2.28000000       7.42000000       1.08000000  F       0.00000000       0.00000000       0.00000000
O        7.52000000       7.21000000       1.37000000  F       0.00000000       0.00000000       0.00000000
Si       2.11225486       3.96643555      12.32007131  T       0.48398418      -0.52583694       0.09443159
Si       2.90164618       3.63923859      15.07276448  T       0.46310100      -0.41421142      -0.78623881
Si       0.87909236       1.15152187      11.74347981  T      -0.59276343      -0.00246328      -1.10475320
Si       8.29069748       0.97435332      15.60719533  T       0.91900349       1.11774701      -0.04573644
Si       5.44358288       2.00998557      14.42837922  T       1.60365020       0.95274568       0.02666072
Si       4.77276875       5.91988025      16.08741551  T      -0.65752157      -1.42594029       0.40443860
Si       0.01255516       9.14553273      13.87345981  T       0.45790019      -0.46320585       0.25927566
Si       6.19900964       5.20523619      13.66878417  T      -0.42469681      -0.34260229      -1.76683059
Si       5.42396602       9.76056333      12.08804650  T      -0.05132822      -0.23584098       1.39699872
Si       8.39475757       7.03709239      12.72598975  T       0.12956935      -0.13318008      -0.61500791
Si       3.05681357       4.31551836      20.21764807  T       0.92164099      -0.52902995      -0.37618422
Si       2.11831657       1.48155021      19.10402721  T      -0.82281649      -1.23760722      -1.08736373
Si       0.48397774       2.68340545      16.96926883  T       0.07690405      -0.52894006      -1.80744827
Si       4.92323809       1.58682024      17.65861038  T       0.29210707      -0.57309785      -1.25367402
Si       5.95616315       3.76624048      19.67796588  T       0.19810646      -0.32975514       0.62976874
Si       7.65692806       1.20673954      20.61945560  T       1.09546028       1.12763499      -1.76245180
Si       2.57469277       8.74019038      20.36776528  T       0.09278161       0.36751598      -0.74290897
Si       2.88471628       6.69392784      18.12764679  T       1.56722826       0.94217946       0.37622506
Si       1.08288648       6.15398774      21.38555300  T       0.14859184      -0.38327967      -1.92168667
Si       0.19095782       5.56909631      18.38927372  T      -0.90594297      -0.41191828      -0.26679325
Si       6.17612481       9.25147151      22.46413219  T      -2.29123717      -1.24008530      -0.06092829
Si       7.12822825       6.24738135      18.15181640  T      -0.17573413       0.33559427      -0.23900892
Si       7.17444157       9.50568283      18.14803758  T      -0.13623331      -1.00117949       1.32308657
Si       2.10000000       3.98000000       2.32000000  F       0.00000000       0.00000000       0.00000000
Si       2.93174321       3.64834934       5.04470147  T       0.58190851      -0.14291793       0.35869994
Si       0.89000000       1.15000000       1.77000000  F       0.00000000       0.00000000       0.00000000
Si       8.34157134       1.05142436       5.59821466  T      -0.56852747       0.56671301      -0.02131081
Si       5.43813532       1.98416800       4.43403946  T       1.37397708      -0.22738682       0.05685279
Si       4.79055907       5.80403955       6.08673942  T       0.37617012       1.54470034       1.14837218
Si       0.02608456       9.12998949       3.90296594  T       1.15103096      -1.11815563       1.47391590
Si       6.20074285       5.19730085       3.68774447  T      -0.36979825      -0.65581498      -1.07739518
Si       5.42000000       9.77000000       2.06000000  F       0.00000000       0.00000000       0.00000000
Si       8.40176019       7.03958654       2.75054854  T       0.56922124      -0.08412456       0.37283297
Si       3.71386089       4.28174383       9.90417578  T      -0.14228077      -0.36250659       0.68261068
Si       2.30758611       1.60731105       8.98081938  T       0.52358677      -0.37454942      -1.08430970
Si       0.52154185       2.82084804       6.93954120  T      -1.71190788       0.34490826       0.05034827
Si       5.02480941       1.20407541       7.46346425  T      -0.21636912       0.64168990       0.47164880
Si       6.57464302       3.44883249       9.03672633  T      -0.55378629       0.41107777      -0.05512312
Si       7.95446513       1.00979666      10.49636415  T       0.65115646      -0.64761755      -0.18473810
Si       3.52762727       8.23522333      10.42153769  T       1.05750986       0.11602741       0.12810397
Si       3.02350413       6.90606821       8.06207378  T      -1.96549092       0.13701924      -0.85727924
Si       0.92740964       6.44946459      10.98452380  T       0.50665906       0.27618698       0.44244690
Si       0.24133963       5.79448140       8.04023584  T       1.80525397       0.17847561      -2.52571683
Si       5.90837957       7.06248877      11.52647608  T      -0.13618489      -0.65147850       1.60371277
Si       7.42353002       6.07325539       7.81700807  T       0.52674352       0.52928452      -1.34393746
Si       7.33330054       9.30903038       7.97895207  T       1.12182549      -0.47917859       2.01635224
Si       7.93000000       1.02000000       0.50000000  F       0.00000000       0.00000000       0.00000000
Si       0.91000000       6.44000000       0.98000000  F       0.00000000       0.00000000       0.00000000
Si       5.91000000       7.08000000       1.49000000  F       0.00000000       0.00000000       0.00000000
C        4.95776174       5.01079119      25.55538082  T      -0.31537239       0.16478416     -13.17833045
F        5.80251642       6.05101783      25.55641198  T       0.10233306       0.40621900     -20.81315403
F        5.80727292       3.94313248      25.55637157  T       0.21884756      -0.53346806     -20.81100469
153
Lattice="10.0 0.0 0.0 0.0 10.0 0.0 0.0 0.0 43.74" Properties=species:S:1:pos:R:3:move_mask:L:1:momenta:R:3 etch=trj_CF2_30eV_case1 idx=0 index=0 source=trj_CF2_30eV_case1/0000/OUTCAR converged=T time_fs=12.0 pbc="T T T"
O        2.25004864       4.53788754      13.83695160  T      -0.69068359       1.32230807       0.26484129
O        1.48539553       2.45636833      12.52324399  T       0.01114177       0.43770759      -1.22674521
O        3.88784479       2.69308384      14.20319087  T      -0.50950246      -0.73773712       0.59234960
O        3.82284788       4.58216872      16.08359282  T      -0.14090122       0.28774517       0.48579398
O        1.64337846       2.88343976      15.83530187  T       0.12804190      -0.05638867       0.90664921
O        5.08013509       1.65068637      16.08527316  T      -0.42813434       0.33142822       0.53572215
O        5.21329166       0.84126233      13.25209467  T      -1.19273967       0.59097208       0.13674212
O        6.15819678       3.61254436      14.04108528  T      -0.04444394      -0.29473126       0.22688918
O        7.07915994       1.35191527      14.64822571  T       0.11776685       0.62182028       0.65593062
O        9.05148897       2.27881356      16.29016980  T      -0.40232308      -0.12041789       0.84111461
O        9.54161858       0.42336461      14.74446838  T       0.30822343       0.08040747       0.57710744
O        0.88929131       9.76011895      12.64364727  T       0.46441312      -0.49544377      -0.07160576
O        1.18251216       8.22897033      14.63246119  T      -1.07757537       0.36302567      -0.33202133
O        9.85898000       6.98450729      12.09086420  T       0.24676825      -0.07916959       1.43829306
O        5.17757789       6.18142584      14.55219849  T       0.74219388      -0.01038764       0.54898769
O        5.61995071       5.61190350      12.18512304  T       0.64037401      -0.46244195       0.20615908
O        7.78223852       5.80419486      13.63554219  T      -0.05940276       0.32901069       0.11688556
O        5.59836043       8.25615294      12.64779176  T      -0.23974566       1.18279619      -0.67379024
O        8.57353183       8.38946870      13.63636008  T       0.74882917      -0.24595456      -0.08549236
O        2.43087481       5.20915146      21.45727934  T      -0.13963586      -0.34650121       0.59274838
O        0.20419490       6.18260992      22.76820011  T      -0.28399144      -0.20364242       0.27981328
O        1.84536439       0.14062339      19.98147274  T       0.34971912       0.42628087       0.59844738
O        2.19993330       2.97911967      19.91918648  T       0.80843989       0.80719878       0.83196534
O        3.45098075       1.26296181      18.20527227  T       0.22897805       0.29929563       0.01684079
O        0.90894209       1.51347688      18.02130503  T      -0.35082394       0.80313108       0.29009960
O        0.40402689       4.12242123      17.75233252  T       0.10363014      -0.12331780       0.39712051
O        9.09199750       1.35410830      21.40612750  T       0.05316336       0.12005687       0.38827024
O        5.41550350       2.97828080      18.34291232  T      -0.01778881       0.53205473      -1.02271730
O        4.62513974       3.95810665      20.62386271  T       0.55804900      -0.27354786      -0.08146504
O        7.09150130       2.69276749      20.23816589  T      -0.40855067       0.32984652       0.70899149
O        6.42962010       0.43607035      21.42324812  T      -0.29305212       0.68418270       0.30376409
O        6.62465312       5.22913678      19.38824290  T      -0.27956877      -0.31532627       0.09841064
O        7.92679723       9.80909781      16.70161782  T       0.41233108       0.08255043      -0.43080219
O        3.84644217       7.02214429      16.86883667  T      -0.43876740      -0.41748777       0.08163807
O        3.72765123       9.41912585      21.42840503  T       0.67488116      -0.07922792      -0.09981993
O        3.20289022       7.96424375      19.10794252  T       0.13555586       0.35165229       0.37392790
O        1.26021295       6.62776319      17.75704424  T      -0.64984472       0.26567219      -0.65260029
O        3.20800932       5.26552998      18.88900738  T      -0.05595046      -0.13591245      -0.14056872
O        0.35585805       5.54876648      20.05341487  T      -0.34521598       0.39936780       1.02282128
O        1.52417323       7.67844120      21.05972617  T      -0.38339951       0.15560237       0.83739416
O        4.78828963       8.47831709      21.93404695  T       0.67419355       0.07606226       0.77329647
O        8.01472660       0.20857632      19.37421059  T      -0.03533232      -0.22735870      -0.30757128
O        6.92688731       8.83955294      23.75153326  T      -0.04023362      -0.19654799      -0.06097207
O        6.21925100       5.75493019      16.88958495  T       0.26133739       0.39433607       0.34215685
O        5.76410028       0.29198630      18.18892840  T      -0.14743216      -0.48674897       0.23736559
O        8.69869110       5.99046669      17.90900659  T      -0.43635080       0.50075325       0.01677300
O        6.97808922       7.89311030      18.41646696  T      -0.06955266       0.34753436      -0.29987853
O        2.21971518       4.55513291       3.81582948  T      -1.36384444       1.62536329      -0.05430636
O        1.48215413       2.43488877       2.50261933  T       0.12188385       0.20107371      -1.73620756
O        3.90426412       2.70914055       4.18308721  T      -0.13405392      -0.27550535       0.00129672
O        3.68109697       4.54612283       6.13024562  T      -0.09826442      -0.87964426      -0.43647998
O        1.68817163       2.92319814       5.81173200  T      -0.62359348      -0.06598199       0.13146363
O        4.84020427       1.32538102       5.84606419  T       0.49509929       0.04395858      -0.53576150
O        5.23856639       0.83287999       3.23026356  T      -0.49041219       0.39514731      -0.44525850
O        6.16448095       3.62411291       4.04035066  T       0.12265582      -0.16695734       0.23804146
O        7.08374430       1.36570677       4.67228197  T       0.16390575       1.00386416       1.18661648
O        9.03665900       2.43273942       6.29990897  T       1.66969626      -0.55678008       0.90518982
O        9.57696377       0.45132698       4.70240386  T       0.88572510       0.96242977      -0.28006246
O        0.90113986       9.78452339       2.60229143  T       0.72018058      -0.26236422      -0.82673049
O        1.16624548       8.23768479       4.61584811  T      -1.39626089       0.47774705      -0.70495540
O        9.87000000       6.98000000       2.02000000  F       0.00000000       0.00000000       0.00000000
O        5.18307048       6.14844561       4.55083045  T       0.82490220      -0.77499718       0.54042846
O        5.59000000       5.63000000       2.17000000  F       0.00000000       0.00000000       0.00000000
O        7.77910485       5.80735586       3.62063519  T      -0.12479333       0.34181168      -0.19979051
O        5.60561311       8.22599644       2.62565671  T      -0.10774426       0.76577276      -1.30983815
O        8.56338437       8.38072127       3.61429959  T       0.64701487      -0.28147447      -0.52382405
O        3.51131600       4.17252332      11.51807107  T      -0.78368187      -0.18272905      -0.25750738
O        1.13994593       4.86876567      11.36040372  T      -0.06655810      -0.36832754       0.23316854
O        1.72520768       0.90597497      10.37192588  T      -0.16823007      -0.25609954       0.37449832
O        2.78577391       3.12525691       9.31974088  T      -0.31122733       0.47399767      -0.14070359
O        3.55173867       0.98745356       8.18220316  T      -0.21528274       0.56499664       0.80321883
O        1.04690911       1.63606078       7.94128130  T      -0.60392361      -0.50510939       0.27426858
O        0.43381764       4.16359364       7.88340559  T       0.08248276       0.02580752      -0.14754232
O        9.25509688       1.31321306      11.39268877  T      -0.54125385       0.06136772      -1.02781264
O        5.94972601       2.56627968       7.79720595  T       0.61639784      -0.01823784       0.29444011
O        5.27532957       4.03740791       9.72133285  T       0.08323282       0.27260117       0.42395697
O        7.36100002       2.45389579      10.03462644  T       0.55745234       0.21703598       0.10508526
O        6.76754724       0.17816802      11.33056378  T      -1.13622134      -0.19256235       0.26639635
O        7.50616438       4.83362640       8.94063878  T      -0.33153372      -0.48634495      -0.66952997
O        8.08712506       9.76013821       6.58332155  T      -0.22767314       0.62643849      -0.10993426
O        4.10474948       7.03530290       6.81904347  T       0.41695834      -0.09819008      -0.33333836
O        3.97580008       9.58823591      11.22442721  T       0.62495435      -0.22214287      -0.63437516
O        3.05922774       8.33547531       8.85517191  T      -0.05338933      -0.36928734      -0.31614589
O        1.53327993       6.61307915       7.46975841  T      -0.09337894      -0.58009148      -0.22286573
O        3.34368872       5.60557023       9.04099892  T      -0.24491946       0.19491169       0.57681796
O        0.17378017       6.47048405       9.54905714  T      -0.64697236      -0.63745599       0.12379171
O        2.24793704       7.38272446      11.10768308  T      -0.29867359      -0.58143138       0.55623695
O        4.95276249       7.37968419      10.22520034  T      -0.67299102       0.30349021       0.63920915
O        8.18024573       0.03100537       9.17128994  T       0.12299634      -0.31327889      -0.59260423
O        7.51960636       7.20554822      11.34009601  T      -0.11806653      -0.13145283      -0.70755691
O        6.19424870       5.50553052       6.87807671  T       0.32083052       0.14286198      -0.09482144
O        5.81379676       9.88142167       8.01900570  T      -0.00147072      -0.34246754      -0.32214410
O        8.89651176       6.08265242       7.13346614  T      -0.73418989       0.08195602       0.94707568
O        7.25009429       7.67677160       8.17427608  T      -0.51494072       0.08893887       0.11405817
O        3.55000000       4.18000000       1.53000000  F       0.00000000       0.00000000       0.00000000
O        1.14000000       4.89000000       1.35000000  F       0.00000000       0.00000000       0.00000000
O        9.29000000       1.31000000       1.44000000  F       0.00000000       0.00000000       0.00000000
O        6.84000000       0.20000000       1.30000000  F       0.00000000       0.00000000       0.00000000
O        3.95000000       9.60000000       1.25000000  F       0.00000000       0.00000000       0.00000000
O        2.28000000       7.42000000       1.08000000  F       0.00000000       0.00000000       0.00000000
O        7.52000000       7.21000000       1.37000000  F       0.00000000       0.00000000       0.00000000
Si       2.11392306       3.96462583      12.32047587  T       0.46739738      -0.50648386       0.13829571
Si       2.90325122       3.63781573      15.06995935  T       0.45275818      -0.39732876      -0.81621204
Si       0.87691450       1.15146755      11.73959642  T      -0.65251234      -0.02943841      -1.11324014
Si       8.29395954       0.97833898      15.60708571  T       0.94421616       1.15863357      -0.01593732
Si       5.44935436       2.01341238      14.42853338  T       1.69437979       1.00537877       0.06225260
Si       4.77050700       5.91476631      16.08890135  T      -0.63294429      -1.49561484       0.44509006
Si       0.01412081       9.14400507      13.87442870  T       0.43550167      -0.40715934       0.29388437
Si       6.19754943       5.20392839      13.66257796  T      -0.40818030      -0.40622052      -1.77557216
Si       5.42362500       9.75988532      12.09310264  T      -0.14643631      -0.14662827       1.49227029
Si       8.39516433       7.03661799      12.72380632  T       0.10205712      -0.13778400      -0.63247996
Si       3.06021577       4.31372767      20.21642359  T       1.02441608      -0.49195290      -0.32149220
Si       2.11548639       1.47740899      19.10018529  T      -0.79225920      -1.12530800      -1.10742899
Si       0.48418317       2.68164498      16.96285885  T       0.03925485      -0.47523459      -1.85325237
Si       4.92436485       1.58478943      17.65427738  T       0.35263836      -0.58698154      -1.21814246
Si       5.95682354       3.76497137      19.68009025  T       0.17869493      -0.39643145       0.58147535
Si       7.66076346       1.21071050      20.61321957  T       1.09474447       1.14014169      -1.79906150
Si       2.57495225       8.74145388      20.36528854  T       0.05445751       0.35411510      -0.66881992
Si       2.89004434       6.69720106      18.12902076  T       1.47320594       0.92652788       0.40966481
Si       1.08343744       6.15256736      21.37879905  T       0.16720314      -0.42806333      -1.93341598
Si       0.18770679       5.56768306      18.38843418  T      -0.95126774      -0.39451016      -0.21226031
Si       6.16807328       9.24712460      22.46402580  T      -2.30519725      -1.23991730       0.00119492
Si       7.12753636       6.24858032      18.15105273  T      -0.22089163       0.34940790      -0.19552959
Si       7.17401180       9.50218081      18.15252347  T      -0.10892823      -0.99806976       1.23639828
Si       2.10000000       3.98000000       2.32000000  F       0.00000000       0.00000000       0.00000000
Si       2.93356221       3.64777958       5.04578835  T       0.45304248      -0.18389114       0.25932879
Si       0.89000000       1.15000000       1.77000000  F       0.00000000       0.00000000       0.00000000
Si       8.33973623       1.05346524       5.59818474  T      -0.47551913       0.59893755       0.00536913
Si       5.44309471       1.98338580       4.43416279  T       1.46000724      -0.21875717       0.01245440
Si       4.79188250       5.80926994       6.09077628  T       0.38119696       1.43896437       1.15627903
Si       0.03014018       9.12617839       3.90819418  T       1.16367056      -1.05492975       1.51171270
Si       6.19945661       5.19490898       3.68386274  T      -0.36439784      -0.71162800      -1.14058475
Si       5.42000000       9.77000000       2.06000000  F       0.00000000       0.00000000       0.00000000
Si       8.40381435       7.03924445       2.75180976  T       0.60475537      -0.11196189       0.34654311
Si       3.71341698       4.28046411       9.90661913  T      -0.11150820      -0.36808605       0.71241941
Si       2.30925048       1.60610732       8.97710218  T       0.42266568      -0.31079819      -1.03686336
Si       0.51549497       2.82199122       6.93977842  T      -1.73939183       0.30713822       0.08695747
Si       5.02406186       1.20635960       7.46507126  T      -0.20970388       0.66280667       0.44565635
Si       6.57275852       3.45030260       9.03659641  T      -0.52138277       0.42868766      -0.01758866
Si       7.95650037       1.00738811      10.49566774  T       0.50670482      -0.72932582      -0.21458241
Si       3.53127444       8.23557136      10.42201618  T       1.02373040       0.08207315       0.14489048
Si       3.01659398       6.90647877       8.05900336  T      -1.97996838       0.09665054      -0.89635220
Si       0.92903904       6.45033708      10.98622142  T       0.42137628       0.21982484       0.52798460
Si       0.24770005       5.79507889       8.03134485  T       1.82541828       0.16119279      -2.55142113
Si       5.90785668       7.06026448      11.53216397  T      -0.16311026      -0.61717447       1.64508190
Si       7.42532770       6.07510274       7.81231862  T       0.49765785       0.52561942      -1.33295766
Si       7.33730887       9.30732512       7.98600292  T       1.16655923      -0.49529687       2.00867615
Si       7.93000000       1.02000000       0.50000000  F       0.00000000       0.00000000       0.00000000
Si       0.91000000       6.44000000       0.98000000  F       0.00000000       0.00000000       0.00000000
Si       5.91000000       7.08000000       1.49000000  F       0.00000000       0.00000000       0.00000000
C        4.95576760       5.01209648      25.44760250  T      -0.16936060       0.15355112     -13.17954288
F        5.80286524       6.05301067      25.44879945  T       0.03132655       0.36302669     -20.81418495
F        5.80820915       3.94052085      25.44877898  T       0.14141012      -0.47433188     -20.80852697
153
Lattice="10.0 0.0 0.0 0.0 10.0 0.0 0.0 0.0 43.74" Properties=species:S:1:pos:R:3:move_mask:L:1:momenta:R:3 etch=trj_CF2_30eV_case1 idx=0 index=0 source=trj_CF2_30eV_case1/0000/OUTCAR converged=T time_fs=13.0 pbc="T T T"
O        2.24575117       4.54609386      13.83869154  T      -0.70787234       1.34792907       0.30182593
O        1.48534890       2.45892105      12.51545651  T      -0.02725915       0.39180462      -1.30898624
O        3.88468092       2.68836627      14.20692786  T      -0.51999354      -0.79877576       0.62403759
O        3.82174886       4.58370899      16.08655958  T      -0.21886072       0.21095724       0.47933161
O        1.64448116       2.88318309      15.84078180  T       0.23374587      -0.02645939       0.87499817
O        5.07750132       1.65283779      16.08806521  T      -0.42880578       0.36952750       0.36836378
O        5.20574800       0.84504025      13.25302841  T      -1.26337218       0.63932827       0.16766203
O        6.15791603       3.61082809      14.04246107  T      -0.04699859      -0.26266008       0.22038536
O        7.07981835       1.35590449      14.65232479  T       0.09655294       0.67745195       0.67856758
O        9.04899688       2.27820737      16.29555144  T      -0.40906859      -0.07564558       0.91145951
O        9.54379223       0.42367607      14.74787477  T       0.40064001       0.02051954       0.53100047
O        0.89219149       9.75721542      12.64305946  T       0.47923428      -0.44842774      -0.12041652
O        1.17584764       8.23112756      14.63048951  T      -1.09035973       0.33744755      -0.30827726
O        9.86098351       6.98384468      12.09966134  T       0.40788129      -0.13755612       1.42462579
O        5.18231596       6.18130271      14.55564739  T       0.80105021      -0.03058269       0.57361957
O        5.62386602       5.60897910      12.18621867  T       0.63282276      -0.48972623       0.14781307
O        7.78175295       5.80624698      13.63625017  T      -0.09963881       0.33895974       0.11314666
O        5.59690740       8.26309126      12.64370777  T      -0.23257455       1.07023452      -0.65342289
O        8.57815513       8.38792742      13.63581781  T       0.75520952      -0.25591248      -0.09129640
O        2.43007754       5.20689592      21.46092351  T      -0.11935553      -0.38837308       0.59263408
O        0.20252224       6.18130466      22.76977925  T      -0.25937432      -0.22154009       0.23235385
O        1.84753931       0.14324227      19.98530476  T       0.35817983       0.42625898       0.64954288
O        2.20484056       2.98342651      19.92411268  T       0.78774062       0.59031473       0.77026138
O        3.45218433       1.26482800      18.20548571  T       0.16206189       0.30818124       0.05290514
O        0.90664445       1.51851245      18.02313043  T      -0.39827003       0.83610663       0.30391750
O        0.40467334       4.12130168      17.75471492  T       0.10648098      -0.24221044       0.37829433
O        9.09232952       1.35488351      21.40855667  T       0.05473169       0.13253807       0.40230487
O        5.41547737       2.98168511      18.33659189  T       0.00995974       0.57617337      -1.03431445
O        4.62858392       3.95640266      20.62342297  T       0.56245876      -0.28107300      -0.06087883
O        7.08898359       2.69485455      20.24264223  T      -0.41046029       0.34962892       0.74843342
O        6.42795630       0.44037407      21.42516966  T      -0.24747031       0.71601661       0.32256078
O        6.62298346       5.22733470      19.38876753  T      -0.26341946      -0.27011875       0.07175573
O        7.92919494       9.80951127      16.69931996  T       0.36741729       0.05190917      -0.31545972
O        3.84382743       7.01953818      16.86920430  T      -0.41112931      -0.43081207       0.03660006
O        3.73190100       9.41857039      21.42772245  T       0.70879351      -0.10209414      -0.12284247
O        3.20381496       7.96644734      19.11021466  T       0.16631174       0.36542772       0.36477520
O        1.25656684       6.62947942      17.75309125  T      -0.53557937       0.29272759      -0.63283726
O        3.20765537       5.26486926      18.88803295  T      -0.05917951      -0.07811137      -0.17671146
O        0.35341935       5.55119322      20.05930249  T      -0.45167740       0.38944008       0.88869870
O        1.52197633       7.67979763      21.06487916  T      -0.33071594       0.28771703       0.83973585
O        4.79219453       8.47863501      21.93882135  T       0.59230530       0.02506479       0.77959032
O        8.01460356       0.20720422      19.37235716  T      -0.00371653      -0.21871883      -0.29511417
O        6.92645371       8.83835355      23.75086366  T      -0.10192535      -0.19407636      -0.15834867
O        6.22069074       5.75743021      16.89160153  T       0.20569723       0.41954915       0.31324098
O        5.76316335       0.28888866      18.19043402  T      -0.15789573      -0.52180141       0.25276619
O        8.69604427       5.99361225      17.90915048  T      -0.42420961       0.52322451       0.03035524
O        6.97762537       7.89506358      18.41461678  T      -0.08180178       0.28603197      -0.30202296
O        2.21122855       4.56515111       3.81570349  T      -1.39860410       1.63424128       0.01367623
O        1.48299501       2.43624078       2.49161628  T       0.15269862       0.23999252      -1.84673721
O        3.90342543       2.70740078       4.18302639  T      -0.13903357      -0.29088387      -0.02160672
O        3.68100911       4.54119150       6.12780380  T       0.07270188      -0.72239001      -0.35612750
O        1.68438470       2.92287682       5.81242601  T      -0.60852535      -0.03789552       0.09377899
O        4.84331388       1.32558157       5.84316702  T       0.51720825       0.02102352      -0.40481433
O        5.23552331       0.83543978       3.22749825  T      -0.49973292       0.43874375      -0.45482584
O        6.16526607       3.62303555       4.04182704  T       0.13307998      -0.18414455       0.24224522
O        7.08460217       1.37215450       4.67964277  T       0.11404257       1.09656397       1.20876513
O        9.04686867       2.42908638       6.30549551  T       1.64917688      -0.63439886       0.91166202
O        9.58248814       0.45735380       4.70056648  T       0.91165802       1.00009167      -0.31841152
O        0.90564294       9.78276752       2.59716207  T       0.74600600      -0.30960335      -0.84327523
O        1.15770583       8.24042436       4.61159674  T      -1.37977069       0.41005348      -0.67620525
O        9.87000000       6.98000000       2.02000000  F       0.00000000       0.00000000       0.00000000
O        5.18827467       6.14356938       4.55425657  T       0.86961311      -0.81251815       0.57504273
O        5.59000000       5.63000000       2.17000000  F       0.00000000       0.00000000       0.00000000
O        7.77821975       5.80941875       3.61940616  T      -0.16421322       0.32889850      -0.20015773
O        5.60493634       8.23067146       2.61745641  T      -0.11256876       0.75425120      -1.35905138
O        8.56751377       8.37914268       3.61110845  T       0.69739904      -0.23078884      -0.51431692
O        3.50656189       4.17137484      11.51649933  T      -0.76225217      -0.19117936      -0.25334467
O        1.13947042       4.86658626      11.36185561  T      -0.08856320      -0.34031333       0.23957875
O        1.72433168       0.90442912      10.37390309  T      -0.11561949      -0.24702356       0.26646598
O        2.78364363       3.12791976       9.31873942  T      -0.38300694       0.39180875      -0.18590237
O        3.55086691       0.99088647       8.18701958  T      -0.06444772       0.55144956       0.76283998
O        1.04307875       1.63296273       7.94300629  T      -0.64326531      -0.50279016       0.28732664
O        0.43432986       4.16392393       7.88248177  T       0.08433361       0.08268379      -0.15349898
O        9.25201737       1.31358608      11.38636589  T      -0.45831764       0.06001103      -1.02928954
O        5.95349960       2.56601292       7.79894448  T       0.61146169      -0.06941446       0.27096836
O        5.27561889       4.03919577       9.72413082  T       0.01040071       0.30962850       0.48771752
O        7.36453580       2.45515796      10.03526557  T       0.59358708       0.19346783       0.10244228
O        6.76095841       0.17724674      11.33182224  T      -1.00582317      -0.10582617       0.14107506
O        7.50408659       4.83071313       8.93624840  T      -0.34486667      -0.46107624      -0.76110959
O        8.08556327       9.76398586       6.58289087  T      -0.28138501       0.62585247      -0.02872836
O        4.10694470       7.03497787       6.81734645  T       0.29428056      -0.00475462      -0.21632779
O        3.97972771       9.58691901      11.22043674  T       0.65383966      -0.20545634      -0.66456963
O        3.05885828       8.33314105       8.85323979  T      -0.06716992      -0.39068057      -0.31204291
O        1.53278124       6.60953519       7.46810079  T      -0.06779633      -0.57214414      -0.32011988
O        3.34206454       5.60704593       9.04447755  T      -0.28445383       0.28645026       0.55517231
O        0.16973582       6.46633677       9.54956343  T      -0.66874896      -0.71359425       0.04013949
O        2.24650434       7.37937089      11.11108612  T      -0.16479949      -0.50837188       0.55129196
O        4.94877856       7.38139581      10.22946810  T      -0.62147427       0.25146962       0.75207548
O        8.18116955       0.02919643       9.16793782  T       0.17988808      -0.27404195      -0.49494456
O        7.51877191       7.20469550      11.33568767  T      -0.15395281      -0.14648272      -0.72678098
O        6.19623738       5.50643959       6.87743444  T       0.32635443       0.15327504      -0.11464427
O        5.81372503       9.87936743       8.01693356  T      -0.02161472      -0.32572371      -0.35270200
O        8.89228573       6.08318754       7.13927903  T      -0.63679391       0.09254188       0.94341199
O        7.24683000       7.67725042       8.17500486  T      -0.54797931       0.06613840       0.12336828
O        3.55000000       4.18000000       1.53000000  F       0.00000000       0.00000000       0.00000000
O        1.14000000       4.89000000       1.35000000  F       0.00000000       0.00000000       0.00000000
O        9.29000000       1.31000000       1.44000000  F       0.00000000       0.00000000       0.00000000
O        6.84000000       0.20000000       1.30000000  F       0.00000000       0.00000000       0.00000000
O        3.95000000       9.60000000       1.25000000  F       0.00000000       0.00000000       0.00000000
O        2.28000000       7.42000000       1.08000000  F       0.00000000       0.00000000       0.00000000
O        7.52000000       7.21000000       1.37000000  F       0.00000000       0.00000000       0.00000000
Si       2.11550925       3.96290737      12.32104663  T       0.43705637      -0.47373112       0.18941036
Si       2.90480192       3.63647146      15.06706461  T       0.43209087      -0.36931371      -0.83749371
Si       0.87452925       1.15131116      11.73570712  T      -0.71115986      -0.06079125      -1.10857713
Si       8.29729001       0.98244122      15.60708930  T       0.95824218       1.18423677       0.01884473
Si       5.45542107       2.01700949      14.42881862  T       1.77234444       1.05007739       0.10145718
Si       4.76835766       5.90943500      16.09052774  T      -0.59344311      -1.55016919       0.48466701
Si       0.01559100       9.14270287      13.87550892  T       0.40352538      -0.33447120       0.32245209
Si       6.19616671       5.20238957      13.65640261  T      -0.38043740      -0.47451006      -1.74910969
Si       5.42292714       9.75956862      12.09847196  T      -0.25483479      -0.02915190       1.57570521
Si       8.39546681       7.03613042      12.72157119  T       0.07031192      -0.14072093      -0.64481651
Si       3.06398163       4.31209351      20.21541271  T       1.12926339      -0.43996199      -0.25449562
Si       2.11279306       1.47370627      19.09629321  T      -0.74496039      -0.98778850      -1.11609888
Si       0.48424551       2.68009483      16.95633332  T      -0.00460772      -0.40905595      -1.87351558
Si       4.92570622       1.58272116      17.65012337  T       0.41448110      -0.59460641      -1.15169367
Si       5.95740899       3.76346585      19.68201317  T       0.15551211      -0.46456641       0.51478310
Si       7.66456892       1.21469794      20.60689725  T       1.07861391       1.13722073      -1.81185061
Si       2.57506779       8.74266315      20.36311245  T       0.01073712       0.33682464      -0.57138027
Si       2.89498659       6.70039225      18.13051322  T       1.34741949       0.89567570       0.44385032
Si       1.08406094       6.15100006      21.37206995  T       0.19026157      -0.46679897      -1.90756274
Si       0.18431501       5.56634601      18.38779291  T      -0.98626970      -0.36862060      -0.15411811
Si       6.16004507       9.24283266      22.46414556  T      -2.27798426      -1.20837158       0.06788985
Si       7.12667764       6.24982178      18.15046068  T      -0.27105713       0.35986167      -0.14108300
Si       7.17368255       9.49872039      18.15665478  T      -0.07893899      -0.97756143       1.12101830
Si       2.10000000       3.98000000       2.32000000  F       0.00000000       0.00000000       0.00000000
Si       2.93488426       3.64705845       5.04649750  T       0.29862012      -0.22901095       0.14356081
Si       0.89000000       1.15000000       1.77000000  F       0.00000000       0.00000000       0.00000000
Si       8.33827541       1.05560503       5.59825882  T      -0.35481192       0.62304601       0.03807524
Si       5.44833579       1.98264439       4.43412059  T       1.53482710      -0.20409870      -0.03741324
Si       4.79322927       5.81406543       6.09480628  T       0.38959506       1.29701964       1.14475288
Si       0.03419809       9.12264622       3.91351647  T       1.15224825      -0.95884629       1.52768793
Si       6.19820146       5.19232515       3.67977684  T      -0.35208183      -0.76550099      -1.19396004
Si       5.42000000       9.77000000       2.06000000  F       0.00000000       0.00000000       0.00000000
Si       8.40598641       7.03880120       2.75296270  T       0.63660199      -0.14178097       0.31120157
Si       3.71307932       4.27917617       9.90914537  T      -0.08217553      -0.36717542       0.72963358
Si       2.31051190       1.60515312       8.97359099  T       0.29367967      -0.23235584      -0.96708250
Si       0.50941471       2.82298803       6.94015971  T      -1.73042144       0.26166450       0.13293600
Si       5.02335106       1.20870163       7.46657289  T      -0.19524929       0.67469018       0.41169628
Si       6.57100924       3.45182575       9.03661236  T      -0.47685053       0.44135385       0.02822681
Si       7.95797694       1.00469820      10.49485700  T       0.33248830      -0.80814214      -0.25002230
Si       3.53476346       8.23579265      10.42254685  T       0.96729479       0.04374492       0.15770116
Si       3.00968906       6.90673881       8.05581688  T      -1.96266452       0.05128222      -0.92349305
Si       0.93033738       6.45098616      10.98821312  T       0.31803427       0.14875730       0.60993834
Si       0.25407026       5.79559702       8.02242923  T       1.81075225       0.13303773      -2.54007937
Si       5.90723719       7.05819017      11.53796165  T      -0.19135001      -0.56595081       1.66657945
Si       7.42699015       6.07692396       7.80771087  T       0.44941685       0.51452116      -1.29747972
Si       7.34143757       9.30556942       7.99296306  T       1.19026185      -0.50808232       1.96476357
Si       7.93000000       1.02000000       0.50000000  F       0.00000000       0.00000000       0.00000000
Si       0.91000000       6.44000000       0.98000000  F       0.00000000       0.00000000       0.00000000
Si       5.91000000       7.08000000       1.49000000  F       0.00000000       0.00000000       0.00000000
C        4.95502302       5.01329077      25.33981359  T      -0.01108731       0.13765489     -13.18093849
F        5.80283251       6.05476010      25.34118249  T      -0.04453378       0.31263088     -20.81484858
F        5.80872152       3.93824640      25.34120104  T       0.05554183      -0.40358911     -20.80541568
153
Lattice="10.0 0.0 0.0 0.0 10.0 0.0 0.0 0.0 43.74" Properties=species:S:1:pos:R:3:move_mask:L:1:momenta:R:3 etch=trj_CF2_30eV_case1 idx=0 index=0 source=trj_CF2_30eV_case1/0000/OUTCAR converged=T time_fs=14.0 pbc="T T T"
O        2.24137046       4.55440809      13.84065544  T      -0.71783026       1.35747757       0.33759712
O        1.48505233       2.46116027      12.50718256  T      -0.07007503       0.33597161      -1.38508794
O        3.88147138       2.68327891      14.21084323  T      -0.52441750      -0.85806001       0.65036775
O        3.82014410       4.58472956      16.08946584  T      -0.30532927       0.11880592       0.46622238
O        1.64627272       2.88312166      15.84601202  T       0.35195977       0.00700393       0.82561679
O        5.07487966       1.65522447      16.08974677  T      -0.42430439       0.40794600       0.17523198
O        5.19779226       0.84910832      13.25415513  T      -1.32685460       0.68538643       0.19947272
O        6.15761978       3.60933561      14.04378234  T      -0.04950047      -0.22200599       0.20915728
O        7.08034574       1.36023061      14.65655032  T       0.07545291       0.73141895       0.69723255
O        9.04646910       2.27789787      16.30135519  T      -0.41418702      -0.02401892       0.97838958
O        9.54654306       0.42361422      14.75097608  T       0.49563566      -0.04059176       0.47837205
O        0.89516416       9.75463086      12.64216483  T       0.48794775      -0.39191895      -0.17121823
O        1.16915522       8.23309048      14.62869625  T      -1.08661774       0.29968010      -0.27389045
O        9.86400324       6.98281068      12.10833201  T       0.57669445      -0.19987100       1.39774714
O        5.18741158       6.18104124      14.55923286  T       0.85859566      -0.05550291       0.59347172
O        5.62769858       5.60589485      12.18690839  T       0.61348903      -0.51453260       0.07404154
O        7.78100702       5.80835185      13.63692531  T      -0.14404575       0.34623108       0.10616595
O        5.59551482       8.26922434      12.63980089  T      -0.22009315       0.92119542      -0.61608888
O        8.58278455       8.38632834      13.63523731  T       0.75086181      -0.26480893      -0.09799584
O        2.42941574       5.20438201      21.46453874  T      -0.09567607      -0.43053665       0.58333983
O        0.20102470       6.17988987      22.77103100  T      -0.22710459      -0.23929640       0.17332268
O        1.84975672       0.14585291      19.98944451  T       0.36361230       0.42385758       0.69851933
O        2.20958423       2.98631980      19.92862171  T       0.75568163       0.34822346       0.69661636
O        3.45296397       1.26674169      18.20592218  T       0.09163035       0.31481445       0.08911103
O        0.90404565       1.52373199      18.02503036  T      -0.44885109       0.86305494       0.31434641
O        0.40532903       4.11944367      17.75697270  T       0.10654171      -0.36288326       0.35688929
O        9.09266661       1.35573642      21.41105975  T       0.05476589       0.14536146       0.41231503
O        5.41563225       2.98534698      18.33023014  T       0.04107126       0.61575002      -1.03637648
O        4.63203163       3.95465996      20.62312417  T       0.55926521      -0.28617877      -0.03559987
O        7.08647283       2.69705640      20.24734807  T      -0.40631235       0.36720986       0.78373887
O        6.42659507       0.44484371      21.42721316  T      -0.19475023       0.73811926       0.34357475
O        6.62142691       5.22583433      19.38911742  T      -0.24292145      -0.21742790       0.04167414
O        7.93129723       9.80973456      16.69776352  T       0.31647233       0.02093226      -0.19007267
O        3.84141173       7.01686074      16.86927184  T      -0.37419612      -0.44078127      -0.01584474
O        3.73634701       9.41786892      21.42689354  T       0.73874925      -0.12668653      -0.14746590
O        3.20493847       7.96872307      19.11240709  T       0.20023168       0.37513477       0.34804739
O        1.25365588       6.63134948      17.74929642  T      -0.41119634       0.31554228      -0.60115861
O        3.20728455       5.26458082      18.88684103  T      -0.06141658      -0.01512196      -0.21101884
O        0.35028810       5.55353149      20.06426568  T      -0.57047860       0.37068992       0.72251533
O        1.52012559       7.68198373      21.07002372  T      -0.27112260       0.42483338       0.83495081
O        4.79550630       8.47859967      21.94359506  T       0.48111160      -0.03904262       0.77309264
O        8.01469095       0.20589942      19.37059717  T       0.03309444      -0.20551267      -0.27728531
O        6.92562821       8.83716969      23.74958020  T      -0.16754523      -0.19168071      -0.26024994
O        6.22175824       5.76007634      16.89341701  T       0.14040702       0.44187085       0.27690311
O        5.76215993       0.28558501      18.19202840  T      -0.16915699      -0.55374021       0.26621757
O        8.69349863       5.99688422      17.90938160  T      -0.40350117       0.54194313       0.04512164
O        6.97708215       7.89659634      18.41276657  T      -0.09541186       0.21090723      -0.29989799
O        2.20256251       4.57516073       3.81599894  T      -1.42242907       1.62266281       0.08246793
O        1.48403563       2.43784165       2.47995711  T       0.18689619       0.28201854      -1.94991265
O        3.90255788       2.70557256       4.18281745  T      -0.14351135      -0.30427301      -0.04682485
O        3.68201522       4.53729025       6.12589714  T       0.25695748      -0.54549109      -0.26306269
O        1.68071336       2.92274032       5.81287639  T      -0.58621543      -0.00590028       0.05237817
O        4.84654856       1.32563685       5.84112074  T       0.53589254      -0.00311962      -0.25964575
O        5.23244193       0.83826690       3.22468560  T      -0.50289123       0.48208076      -0.46079711
O        6.16611472       3.62185034       4.04331830  T       0.14332997      -0.20207297       0.24284107
O        7.08513162       1.37917110       4.68710071  T       0.05742706       1.18897619       1.21850085
O        9.05683636       2.42493760       6.31107210  T       1.59060688      -0.71823422       0.90185082
O        9.58813490       0.46360070       4.69849545  T       0.92549676       1.03432644      -0.35603200
O        0.91029344       9.78072354       2.59194456  T       0.76831942      -0.35590858      -0.85572772
O        1.14936362       8.24267169       4.60758389  T      -1.33176031       0.31725606      -0.62714082
O        9.87000000       6.98000000       2.02000000  F       0.00000000       0.00000000       0.00000000
O        5.19374086       6.13847828       4.55788457  T       0.91029962      -0.84498985       0.60604984
O        5.59000000       5.63000000       2.17000000  F       0.00000000       0.00000000       0.00000000
O        7.77708224       5.81138179       3.61818127  T      -0.20686320       0.30939539      -0.19852270
O        5.60423229       8.23522824       2.60899384  T      -0.11664837       0.72723836      -1.39517877
O        8.57193872       8.37790596       3.60799728  T       0.74304789      -0.17043640      -0.49800947
O        3.50198324       4.17017789      11.51497245  T      -0.72674774      -0.19854662      -0.24280633
O        1.13885678       4.86459899      11.36334381  T      -0.11143769      -0.30600878       0.24508253
O        1.72380174       0.90294555      10.37516927  T      -0.05584501      -0.23595578       0.14355554
O        2.78107030       3.13005579       9.31745583  T      -0.45510715       0.30326708      -0.23231122
O        3.55098558       0.99420754       8.19154313  T       0.10627457       0.52888955       0.70839909
O        1.03901643       1.62989992       7.94480594  T      -0.67945106      -0.49371419       0.29856459
O        0.43485295       4.16461568       7.88151905  T       0.08606256       0.14306398      -0.16034418
O        9.24950297       1.31394850      11.38007529  T      -0.35778663       0.05789970      -1.01760257
O        5.95722105       2.56542160       7.80052537  T       0.59966067      -0.12356745       0.24341753
O        5.27545499       4.04120679       9.72732229  T      -0.06361895       0.34504330       0.55183332
O        7.36828034       2.45626615      10.03587707  T       0.62533793       0.16716299       0.09601582
O        6.75523380       0.17688314      11.33227563  T      -0.85605736      -0.01150004       0.00511812
O        7.50193420       4.82797985       8.93128983  T      -0.35585989      -0.42795835      -0.85434399
O        8.08366827       9.76781313       6.58298298  T      -0.33594434       0.62005251       0.05986463
O        4.10832789       7.03527104       6.81641489  T       0.15334724       0.10245097      -0.08489144
O        3.98382233       9.58572738      11.21627712  T       0.67942431      -0.18132368      -0.68942663
O        3.05840109       8.33068274       8.85135299  T      -0.08191770      -0.40964623      -0.30132102
O        1.53246001       6.60607633       7.46579711  T      -0.03569244      -0.55242443      -0.43325062
O        3.34019366       5.60909076       9.04780588  T      -0.32514022       0.37963875       0.52827813
O        0.16558724       6.46172225       9.54954326  T      -0.68077342      -0.78946213      -0.04704326
O        2.24594177       7.37650578      11.11444283  T      -0.01618849      -0.42298235       0.54132058
O        4.94516403       7.38274595      10.23444386  T      -0.55293593       0.18588072       0.86945830
O        8.18247415       0.02765889       9.16525508  T       0.24694864      -0.22517791      -0.37511360
O        7.51771544       7.20374794      11.33118973  T      -0.19010036      -0.16234048      -0.73665430
O        6.19824984       5.50741268       6.87666686  T       0.32864818       0.16372775      -0.13556735
O        5.81353582       9.87743106       8.01467709  T      -0.03942792      -0.30429145      -0.38207938
O        8.88874855       6.08379076       7.14501892  T      -0.51023855       0.10417758       0.92335052
O        7.24337029       7.67757499       8.17579124  T      -0.57856239       0.03879307       0.13283310
O        3.55000000       4.18000000       1.53000000  F       0.00000000       0.00000000       0.00000000
O        1.14000000       4.89000000       1.35000000  F       0.00000000       0.00000000       0.00000000
O        9.29000000       1.31000000       1.44000000  F       0.00000000       0.00000000       0.00000000
O        6.84000000       0.20000000       1.30000000  F       0.00000000       0.00000000       0.00000000
O        3.95000000       9.60000000       1.25000000  F       0.00000000       0.00000000       0.00000000
O        2.28000000       7.42000000       1.08000000  F       0.00000000       0.00000000       0.00000000
O        7.52000000       7.21000000       1.37000000  F       0.00000000       0.00000000       0.00000000
Si       2.11696517       3.96132604      12.32180823  T       0.39292744      -0.42823227       0.24732076
Si       2.90626292       3.63524414      15.06411041  T       0.40158771      -0.33055701      -0.85026841
Si       0.87194239       1.15103772      11.73185340  T      -0.76757203      -0.09634807      -1.09344594
Si       8.30065103       0.98660509      15.60722198  T       0.96186575       1.19374848       0.05769714
Si       5.46173718       2.02074878      14.42924606  T       1.83686570       1.08666543       0.14340135
Si       4.76637075       5.90393963      16.09228950  T      -0.54035770      -1.58945694       0.52234125
Si       0.01693440       9.14168229      13.87667483  T       0.36327008      -0.24639131       0.34241818
Si       6.19490005       5.20060539      13.65038129  T      -0.34193858      -0.54626598      -1.68764315
Si       5.42183153       9.75971205      12.10410954  T      -0.37319355       0.11629257       1.64531377
Si       8.39565385       7.03563535      12.71929991  T       0.03647147      -0.14210800      -0.65344115
Si       3.06811497       4.31066332      20.21465402  T       1.23410631      -0.37594951      -0.17778760
Si       2.11029112       1.47052166      19.09239054  T      -0.68330635      -0.82992644      -1.11347974
Si       0.48414624       2.67879507      16.94978132  T      -0.05274606      -0.33241740      -1.86849274
Si       4.92726354       1.58063649      17.64625211  T       0.47577613      -0.59644461      -1.05713596
Si       5.95790875       3.76172242      19.68367231  T       0.12996375      -0.53207603       0.43086037
Si       7.66829318       1.21864954      20.60057138  T       1.04862514       1.11986047      -1.80116566
Si       2.57502309       8.74380757      20.36131470  T      -0.03687688       0.31735138      -0.45296693
Si       2.89943973       6.70345219      18.13212528  T       1.19439282       0.85193841       0.47783054
Si       1.08477409       6.14931144      21.36549539  T       0.21857693      -0.49701392      -1.84545551
Si       0.18081999       5.56511199      18.38735599  T      -1.01017239      -0.33595285      -0.09609290
Si       6.15218266       9.23870745      22.46450263  T      -2.21072594      -1.14449762       0.13635177
Si       7.12563537       6.25109362      18.15007646  T      -0.32574301       0.36672398      -0.07695057
Si       7.17346162       9.49536056      18.16033781  T      -0.04712191      -0.94082010       0.98079954
Si       2.10000000       3.98000000       2.32000000  F       0.00000000       0.00000000       0.00000000
Si       2.93562876       3.64617625       5.04678010  T       0.12383886      -0.27537834       0.01642540
Si       0.89000000       1.15000000       1.77000000  F       0.00000000       0.00000000       0.00000000
Si       8.33728220       1.05781331       5.59845705  T      -0.20865058       0.63791067       0.07622755
Si       5.45381720       1.98196439       4.43389756  T       1.59721170      -0.18372417      -0.09049411
Si       4.79461129       5.81830953       6.09876483  T       0.40122553       1.12490650       1.11591108
Si       0.03817345       9.11950593       3.91885650  T       1.11643339      -0.83106125       1.52187068
Si       6.19700087       5.18955690       3.67552277  T      -0.33330231      -0.81701476      -1.23658419
Si       5.42000000       9.77000000       2.06000000  F       0.00000000       0.00000000       0.00000000
Si       8.40826310       7.03825171       2.75397850  T       0.66453380      -0.17250025       0.26844781
Si       3.71283674       4.27790292       9.91170705  T      -0.05780356      -0.35968742       0.73235380
Si       2.31127790       1.60449480       8.97035811  T       0.14017863      -0.14222875      -0.87843437
Si       0.50343352       2.82381589       6.94071965  T      -1.68233725       0.21101345       0.18928422
Si       5.02270517       1.21106855       7.46794418  T      -0.17249730       0.67698742       0.37143175
Si       6.56943377       3.45338412       9.03680243  T      -0.42244691       0.44876659       0.08187301
Si       7.95879876       1.00174051      10.49391364  T       0.13327877      -0.88207747      -0.29018606
Si       3.53801742       8.23587365      10.42311362  T       0.88962868       0.00202300       0.16533166
Si       3.00289868       6.90683400       8.05255734  T      -1.91474526       0.00272057      -0.93802858
Si       0.93124837       6.45136380      10.99048019  T       0.20071570       0.06505514       0.68482904
Si       0.26032819       5.79599766       8.01361566  T       1.76134246       0.09408644      -2.49344026
Si       5.90651719       7.05632249      11.54380059  T      -0.22050776      -0.49936488       1.66881621
Si       7.42845099       6.07869480       7.80326770  T       0.38258002       0.49701135      -1.23922352
Si       7.34560986       9.30377448       7.99970896  T       1.19124725      -0.51775755       1.88663933
Si       7.93000000       1.02000000       0.50000000  F       0.00000000       0.00000000       0.00000000
Si       0.91000000       6.44000000       0.98000000  F       0.00000000       0.00000000       0.00000000
Si       5.91000000       7.08000000       1.49000000  F       0.00000000       0.00000000       0.00000000
C        4.95559964       5.01433643      25.23201207  T       0.15242492       0.11724029     -13.18266027
F        5.80240308       6.05623660      25.23356325  T      -0.12143149       0.25798762     -20.81507304
F        5.80877571       3.93636134      25.23363993  T      -0.03515412      -0.32427938     -20.80208913
153
Lattice="10.0 0.0 0.0 0.0 10.0 0.0 0.0 0.0 43.74" Properties=species:S:1:pos:R:3:move_mask:L:1:momenta:R:3 etch=trj_CF2_30eV_case1 idx=0 index=0 source=trj_CF2_30eV_case1/0000/OUTCAR converged=T time_fs=15.0 pbc="T T T"
O        2.23695025       4.56273208      13.84283261  T      -0.72079846       1.35117389       0.37111132
O        1.48448217       2.46303176      12.49846190  T      -0.11615247       0.27246797      -1.45438198
O        3.87825255       2.67783497      14.21490260  T      -0.52310370      -0.91476595       0.67085930
O        3.81798701       4.58514259      16.09227314  T      -0.39838299       0.01352561       0.44725606
O        1.64882135       2.88327361      15.85088942  T       0.47974648       0.04281373       0.76050041
O        5.07229985       1.65784630      16.09018179  T      -0.41531460       0.44598619      -0.03614487
O        5.18947028       0.85345077      13.25547811  T      -1.38256554       0.72861497       0.23146787
O        6.15730824       3.60811650      14.04502069  T      -0.05198626      -0.17383448       0.19342490
O        7.08074891       1.36488094      14.66087970  T       0.05647419       0.78291361       0.71250622
O        9.04391162       2.27792283      16.30755624  T      -0.41899646       0.03301557       1.04063689
O        9.54987681       0.42318162      14.75374301  T       0.58989894      -0.09963076       0.42274585
O        0.89817063       9.75241720      12.64095671  T       0.49018317      -0.32800613      -0.22219888
O        1.16253672       8.23478380      14.62714664  T      -1.06632194       0.24963860      -0.22895389
O        9.86806792       6.98138582      12.11680594  T       0.74712107      -0.26459073       1.36121931
O        5.19285546       6.18061167      14.56292558  T       0.91441298      -0.08537398       0.60857113
O        5.63137763       5.60266553      12.18710011  T       0.58296566      -0.53702777      -0.01414505
O        7.77997807       5.81049370      13.63754739  T      -0.19163502       0.35105420       0.09585122
O        5.59421444       8.27434195      12.63617487  T      -0.20262103       0.74055689      -0.56203139
O        8.58735511       8.38467759      13.63461231  T       0.73612178      -0.27276298      -0.10583567
O        2.42890751       5.20161008      21.46806914  T      -0.06950133      -0.47229542       0.56504097
O        0.19974652       6.17836679      22.77188710  T      -0.18810565      -0.25680522       0.10366831
O        1.85199891       0.14844502      19.99387602  T       0.36631265       0.42049224       0.74439030
O        2.21410385       2.98766993      19.93264929  T       0.71539781       0.08922899       0.61398224
O        3.45331048       1.26868979      18.20657616  T       0.02172712       0.31943462       0.12335873
O        0.90112798       1.52909838      18.02698360  T      -0.50201125       0.88393351       0.32127571
O        0.40597528       4.11685244      17.75909590  T       0.10332051      -0.48009487       0.33479810
O        9.09299871       1.35666885      21.41361134  T       0.05308765       0.15840613       0.41804958
O        5.41598707       2.98923535      18.32388228  T       0.07498549       0.64978609      -1.03000033
O        4.63543759       3.95289305      20.62299436  T       0.54898353      -0.28898065      -0.00587958
O        7.08400561       2.69935915      20.25225784  T      -0.39633776       0.38248411       0.81486642
O        6.42557594       0.44941801      21.42939333  T      -0.13628862       0.75006102       0.36711300
O        6.62000680       5.22467509      19.38927468  T      -0.21919565      -0.15941964       0.00921120
O        7.93307314       9.80977097      16.69699730  T       0.26145766      -0.00865736      -0.05880138
O        3.83924741       7.01413156      16.86899874  T      -0.32957149      -0.44773511      -0.07400886
O        3.74096405       9.41701252      21.42590887  T       0.76445021      -0.15245732      -0.17356432
O        3.20627875       7.97104583      19.11447503  T       0.23681492       0.38076445       0.32437626
O        1.25152894       6.63334356      17.74573146  T      -0.28094029       0.33291841      -0.55806670
O        3.20690347       5.26468843      18.88544950  T      -0.06248943       0.05039342      -0.24132230
O        0.34639488       5.55573002      20.06812267  T      -0.69940212       0.34417361       0.52944842
O        1.51865543       7.68501307      21.07512104  T      -0.20723148       0.56135243       0.82464456
O        4.79804845       8.47813060      21.94829049  T       0.34197933      -0.11615791       0.75422878
O        8.01501842       0.20468854      19.36896090  T       0.07432223      -0.18822600      -0.25499790
O        6.92439262       8.83599792      23.74766640  T      -0.23512848      -0.19029693      -0.36299827
O        6.22239998       5.76284985      16.89499033  T       0.06739547       0.46098838       0.23466905
O        5.76108408       0.28209635      18.19369864  T      -0.18154706      -0.58195818       0.27742528
O        8.69110459       6.00025986      17.90970604  T      -0.37500650       0.55702066       0.06067345
O        6.97645120       7.89763149      18.41094231  T      -0.11037425       0.12442167      -0.29359443
O        2.19378191       4.58503783       3.81671277  T      -1.43605930       1.59119037       0.14952717
O        1.48529575       2.43970817       2.46768735  T       0.22412137       0.32635252      -2.04562812
O        3.90166354       2.70366887       4.18244833  T      -0.14783552      -0.31542162      -0.07364971
O        3.68417775       4.53451618       6.12458790  T       0.44820087      -0.35670244      -0.16257499
O        1.67719746       2.92281054       5.81306485  T      -0.55818578       0.02930695       0.00872675
O        4.84988821       1.32554354       5.83999481  T       0.55146917      -0.02712049      -0.10613180
O        5.22936000       0.84135723       3.22184571  T      -0.49992541       0.52432903      -0.46382465
O        6.16702547       3.62055311       4.04480151  T       0.15328281      -0.22059856       0.23957448
O        7.08530023       1.38675122       4.69458397  T      -0.00285780       1.27987623       1.21734092
O        9.06632542       2.42025585       6.31653772  T       1.49325823      -0.80790284       0.87552933
O        9.59382864       0.47004964       4.69619746  T       0.92694558       1.06605374      -0.39223028
O        0.91507160       9.77840208       2.58665977  T       0.78768792      -0.39971937      -0.86540839
O        1.14141454       8.24427094       4.60393562  T      -1.25171512       0.19893959      -0.55745540
O        9.87000000       6.98000000       2.02000000  F       0.00000000       0.00000000       0.00000000
O        5.19944515       6.13320339       4.56168992  T       0.94723305      -0.87238159       0.63266507
O        5.59000000       5.63000000       2.17000000  F       0.00000000       0.00000000       0.00000000
O        7.77567526       5.81320651       3.61697143  T      -0.25179470       0.28399027      -0.19535219
O        5.60350524       8.23957174       2.60035084  T      -0.12008531       0.68482610      -1.41775010
O        8.57662633       8.37706476       3.60500387  T       0.78274938      -0.10232729      -0.47621068
O        3.49766246       4.16893865      11.51353091  T      -0.67854035      -0.20498574      -0.22547636
O        1.13810165       4.86283791      11.36486416  T      -0.13452872      -0.26692251       0.25013877
O        1.72365601       0.90153419      10.37564454  T       0.00916127      -0.22363414       0.00956242
O        2.77805922       3.13164055       9.31588754  T      -0.52517050       0.21311953      -0.27835452
O        3.55219773       0.99736737       8.19569780  T       0.29042914       0.49935893       0.64339897
O        1.03474206       1.62691241       7.94666861  T      -0.71231656      -0.47835739       0.30781981
O        0.43538684       4.16568201       7.88050980  T       0.08789544       0.20415484      -0.16879218
O        9.24765063       1.31429534      11.37389223  T      -0.24344395       0.05490006      -0.99466709
O        5.96085242       2.56449414       7.80192916  T       0.58239284      -0.17849131       0.21364315
O        5.27484351       4.04342697       9.73090426  T      -0.13461921       0.37752123       0.61459630
O        7.37220479       2.45720827      10.03643668  T       0.65208397       0.13965949       0.08548662
O        6.75046954       0.17711380      11.33187501  T      -0.69443049       0.08712980      -0.13608793
O        7.49972115       4.82547061       8.92575749  T      -0.36465535      -0.38836169      -0.94773579
O        8.08143936       9.77159216       6.58363489  T      -0.38988435       0.61039216       0.15311245
O        4.10880287       7.03625371       6.81632175  T      -0.00048309       0.21890476       0.05574122
O        3.98806488       9.58470679      11.21198184  T       0.70210736      -0.14975897      -0.70872930
O        3.05785108       8.32811619       8.84955303  T      -0.09735546      -0.42588022      -0.28372236
O        1.53235376       6.60277352       7.46275155  T       0.00201393      -0.52145616      -0.56162958
O        3.33807134       5.61170390       9.05095860  T      -0.36621971       0.47092218       0.49838365
O        0.16139659       6.45664539       9.54898560  T      -0.68234111      -0.86401221      -0.13432759
O        2.24632345       7.37419346      11.11772518  T       0.14172980      -0.32904102       0.52723532
O        4.94201823       7.38365411      10.24014883  T      -0.46917905       0.10772150       0.98919828
O        8.18421989       0.02644614       9.16336749  T       0.32338038      -0.16867910      -0.23669389
O        7.51644021       7.20270065      11.32666088  T      -0.22490670      -0.17895138      -0.73679450
O        6.20026748       5.50845022       6.87576845  T       0.32812549       0.17428246      -0.15718899
O        5.81324854       9.87563768       8.01224538  T      -0.05326239      -0.27937687      -0.40967253
O        8.88607044       6.08446919       7.15058650  T      -0.35768720       0.11708654       0.88742548
O        7.23973085       7.67771920       8.17663632  T      -0.60649016       0.00750998       0.14249724
O        3.55000000       4.18000000       1.53000000  F       0.00000000       0.00000000       0.00000000
O        1.14000000       4.89000000       1.35000000  F       0.00000000       0.00000000       0.00000000
O        9.29000000       1.31000000       1.44000000  F       0.00000000       0.00000000       0.00000000
O        6.84000000       0.20000000       1.30000000  F       0.00000000       0.00000000       0.00000000
O        3.95000000       9.60000000       1.25000000  F       0.00000000       0.00000000       0.00000000
O        2.28000000       7.42000000       1.08000000  F       0.00000000       0.00000000       0.00000000
O        7.52000000       7.21000000       1.37000000  F       0.00000000       0.00000000       0.00000000
Si       2.11824302       3.95992471      12.32278330  T       0.33531864      -0.37102231       0.31132343
Si       2.90760113       3.63417020      15.06112585  T       0.36205203      -0.28176627      -0.85495911
Si       0.86916397       1.15063280      11.72806658  T      -0.82043548      -0.13594524      -1.07093104
Si       8.30400803       0.99077327      15.60749625  T       0.95615936       1.18663111       0.09962202
Si       5.46825447       2.02460183      14.42982378  T       1.88726899       1.11515833       0.18723605
Si       4.76459075       5.89833299      16.09417848  T      -0.47550671      -1.61394801       0.55725410
Si       0.01812471       9.14099440      13.87789210  T       0.31629289      -0.14457612       0.35139854
Si       6.19378569       5.19856637      13.64463434  T      -0.29354724      -0.61991415      -1.59260579
Si       5.42031008       9.76041057      12.10996383  T      -0.49755411       0.28773035       1.69933396
Si       8.39572227       7.03513785      12.71700273  T       0.00294446      -0.14215413      -0.65992434
Si       3.07261123       4.30947277      20.21417656  T       1.33622197      -0.30371592      -0.09427192
Si       2.10802594       1.46791804      19.08851692  T      -0.61014341      -0.65642313      -1.09944813
Si       0.48387459       2.67777895      16.94328996  T      -0.10266234      -0.24719168      -1.83906135
Si       4.92903168       1.57855485      17.64275463  T       0.53470794      -0.59296230      -0.93893969
Si       5.95831710       3.75974703      19.68500957  T       0.10351493      -0.59681361       0.33096668
Si       7.67189079       1.22251678      20.59432322  T       1.00653365       1.08919224      -1.76754565
Si       2.57480741       8.74488247      20.35996370  T      -0.08671117       0.29736961      -0.31650611
Si       2.90331675       6.70634034      18.13385386  T       1.01887108       0.79796219       0.51017135
Si       1.08559595       6.14753497      21.35919755  T       0.25241826      -0.51672620      -1.74999225
Si       0.17726169       5.56400128      18.38711668  T      -1.02236482      -0.29848873      -0.04177101
Si       6.14462218       9.23486217      22.46509799  T      -2.10593990      -1.04841312       0.20357474
Si       7.12439485       6.25238275      18.14993121  T      -0.38428703       0.36968149      -0.00477541
Si       7.17335423       9.49215533      18.16349276  T      -0.01410780      -0.88950048       0.81982470
Si       2.10000000       3.98000000       2.32000000  F       0.00000000       0.00000000       0.00000000
Si       2.93573478       3.64513480       5.04660616  T      -0.06531085      -0.31933898      -0.11640835
Si       0.89000000       1.15000000       1.77000000  F       0.00000000       0.00000000       0.00000000
Si       8.33684007       1.06005618       5.59879701  T      -0.04042807       0.64270464       0.11892560
Si       5.45949333       1.98136498       4.43348682  T       1.64595864      -0.15810611      -0.14427426
Si       4.79603807       5.82190900       6.10259641  T       0.41486527       0.92984389       1.07278469
Si       0.04198098       9.11686612       3.92413828  T       1.05639121      -0.67297365       1.49445446
Si       6.19587644       5.18661314       3.67113963  T      -0.30865902      -0.86579440      -1.26762264
Si       5.42000000       9.77000000       2.06000000  F       0.00000000       0.00000000       0.00000000
Si       8.41063018       7.03759479       2.75483435  T       0.68822530      -0.20300879       0.22008360
Si       3.71266578       4.27666732       9.91425058  T      -0.04185062      -0.34566029       0.71900574
Si       2.31147113       1.60416696       8.96746250  T      -0.03277161      -0.04413557      -0.77503880
Si       0.49769127       2.82446124       6.94149587  T      -1.59362904       0.15777225       0.25670689
Si       5.02215394       1.21342647       7.46916599  T      -0.14106398       0.66952864       0.32653806
Si       6.56806221       3.45495879       9.03719289  T      -0.36074678       0.45062157       0.14266985
Si       7.95888810       0.99853563      10.49282370  T      -0.08522746      -0.94910937      -0.33348487
Si       3.54096528       8.23580400      10.42369662  T       0.79266777      -0.04226861       0.16682265
Si       2.99632702       6.90675631       8.04926963  T      -1.83797652      -0.04724912      -0.93954996
Si       0.93173133       6.45143032      10.99299225  T       0.07422628      -0.02859691       0.74946387
Si       0.26635427       5.79624423       8.00502383  T       1.67855047       0.04517104      -2.41373942
Si       5.90569420       7.05471162      11.54961493  T      -0.25015930      -0.41953604       1.65272054
Si       7.42964774       6.08039472       7.79906488  T       0.29882319       0.47417483      -1.16054198
Si       7.34974455       9.30195118       8.00612598  T       1.16869379      -0.52424940       1.77737127
Si       7.93000000       1.02000000       0.50000000  F       0.00000000       0.00000000       0.00000000
Si       0.91000000       6.44000000       0.98000000  F       0.00000000       0.00000000       0.00000000
Si       5.91000000       7.08000000       1.49000000  F       0.00000000       0.00000000       0.00000000
C        4.95751162       5.01519743      25.12419467  T       0.31418908       0.09255107     -13.18481833
F        5.80158092       6.05742535      25.12594378  T      -0.19581535       0.20179948     -20.81495568
F        5.80835585       3.93490229      25.12609583  T      -0.12718421      -0.23931547     -20.79888335
153
Lattice="10.0 0.0 0.0 0.0 10.0 0.0 0.0 0.0 43.74" Properties=species:S:1:pos:R:3:move_mask:L:1:momenta:R:3 etch=trj_CF2_30eV_case1 idx=0 index=0 source=trj_CF2_30eV_case1/0000/OUTCAR converged=T time_fs=16.0 pbc="T T T"
O        2.23253238       4.57096983      13.84520613  T      -0.71715402       1.32950021       0.40138009
O        1.48362227       2.46449611      12.48933823  T      -0.16420684       0.20384668      -1.51626326
O        3.87505807       2.67205320      14.21906881  T      -0.51660932      -0.96790861       0.68510496
O        3.81524412       4.58487591      16.09494825  T      -0.49568671      -0.10201998       0.42333908
O        1.65217501       2.88364928      15.85532518  T       0.61345963       0.07961306       0.68230955
O        5.06978704       1.66069853      16.08928504  T      -0.40263496       0.48284207      -0.25681408
O        5.18083162       0.85804874      13.25699642  T      -1.42990623       0.76854094       0.26298076
O        6.15698141       3.60721292      14.04614945  T      -0.05448413      -0.11949766       0.17353816
O        7.08104719       1.36983779      14.66529386  T       0.04166038       0.83111552       0.72495171
O        9.04132206       2.27831049      16.31412180  T      -0.42490996       0.09380696       1.09688432
O        9.55377868       0.42240112      14.75616815  T       0.68008423      -0.15331381       0.36769552
O        0.90117027       9.75061334      12.63943950  T       0.48568742      -0.25882483      -0.27157697
O        1.15609261       8.23613280      14.62590435  T      -1.02994507       0.18760938      -0.17389221
O        9.87316846       6.97956006      12.12503508  T       0.91297980      -0.33018520       1.31868336
O        5.19863554       6.17998313      14.56669677  T       0.96801880      -0.12033996       0.61907749
O        5.63483736       5.59930441      12.18671058  T       0.54227515      -0.55754797      -0.11486928
O        7.77864997       5.81265833      13.63809582  T      -0.24127395       0.35370860       0.08217231
O        5.59303531       8.27827042      12.63293017  T      -0.18072753       0.53533513      -0.49207677
O        8.59180466       8.38298076      13.63393518  T       0.71157366      -0.27982028      -0.11501012
O        2.42856536       5.19858470      21.47146015  T      -0.04174716      -0.51297793       0.53798031
O        0.19872587       6.17673706      22.77228577  T      -0.14339986      -0.27403891       0.02454391
O        1.85425009       0.15101710      19.99857701  T       0.36659755       0.41759516       0.78610807
O        2.21835985       2.98739974      19.93614927  T       0.67051078      -0.17795609       0.52529284
O        3.45323953       1.27066067      18.20742911  T      -0.04361939       0.32228179       0.15353833
O        0.89787792       1.53457416      18.02896873  T      -0.55696372       0.89867591       0.32476281
O        0.40659059       4.11356479      17.76108580  T       0.09639082      -0.58884440       0.31377543
O        9.09331503       1.35768156      21.41618429  T       0.04961059       0.17147831       0.41923169
O        5.41655728       2.99331359      18.31759657  T       0.11112947       0.67746071      -1.01635515
O        4.63876067       3.95111570      20.62305991  T       0.53245508      -0.28960898       0.02796822
O        7.08161666       2.70174843      20.25734592  T      -0.38089481       0.39539601       0.84183396
O        6.42493001       0.45403417      21.43172586  T      -0.07342181       0.75177842       0.39317376
O        6.61873926       5.22388249      19.38922797  T      -0.19344899      -0.09844695      -0.02458811
O        7.93450349       9.80963404      16.69704516  T       0.20424260      -0.03524194       0.07439585
O        3.83737597       7.01136793      16.86835607  T      -0.27916963      -0.45208916      -0.13581337
O        3.74572502       9.41599580      21.42475964  T       0.78557847      -0.17878450      -0.20106090
O        3.20785019       7.97339104      19.11637863  T       0.27539040       0.38249786       0.29471603
O        1.25021009       6.63542508      17.74246448  T      -0.14863126       0.34386403      -0.50422934
O        3.20651979       5.26519913      18.88388966  T      -0.06222820       0.11566240      -0.26545157
O        0.34168640       5.55774588      20.07072773  T      -0.83540886       0.31154722       0.31604064
O        1.51758423       7.68886487      21.08014209  T      -0.14163261       0.69174810       0.81039723
O        4.79965706       8.47714976      21.95283446  T       0.17765501      -0.20553440       0.72398222
O        8.01561021       0.20359481      19.36747252  T       0.11900543      -0.16748131      -0.22932059
O        6.92274127       8.83482954      23.74512819  T      -0.30258625      -0.19071439      -0.46298599
O        6.22257518       5.76573023      16.89629064  T      -0.01113943       0.47664449       0.18832609
O        5.75992799       0.27844727      18.19543016  T      -0.19533925      -0.60590198       0.28614256
O        8.68890669       6.00371731      17.91012727  T      -0.33984570       0.56863744       0.07656430
O        6.97572434       7.89810786      18.40916921  T      -0.12664528       0.02948068      -0.28326728
O        2.18494711       4.59466232       3.81782749  T      -1.44022133       1.54051724       0.21269014
O        1.48679252       2.44185138       2.45485290  T       0.26387797       0.37192631      -2.13387344
O        3.90074206       2.70170431       4.18191152  T      -0.15243612      -0.32404105      -0.10129290
O        3.68751963       4.53291759       6.12390393  T       0.63991234      -0.16408323      -0.06048856
O        1.67386729       2.92310492       5.81298203  T      -0.52600308       0.06698127      -0.03571923
O        4.85331489       1.32530674       5.83982194  T       0.56431849      -0.04960725       0.04968022
O        5.22631482       0.84470146       3.21899453  T      -0.49094633       0.56462693      -0.46461378
O        6.16799606       3.61914087       4.04625219  T       0.16279857      -0.23948813       0.23219922
O        7.08509661       1.39488112       4.70203141  T      -0.06308338       1.36776436       1.20723169
O        9.07509931       2.41500767       6.32179204  T       1.35795240      -0.90254347       0.83318237
O        9.59949349       0.47668728       4.69368291  T       0.91616317       1.09587381      -0.42650146
O        0.91996082       9.77582267       2.58132149  T       0.80457330      -0.43971603      -0.87329963
O        1.13405367       8.24506667       4.60077746  T      -1.14044825       0.05575172      -0.46767899
O        9.87000000       6.98000000       2.02000000  F       0.00000000       0.00000000       0.00000000
O        5.20536545       6.12777597       4.56564316  T       0.98072152      -0.89467366       0.65407903
O        5.59000000       5.63000000       2.17000000  F       0.00000000       0.00000000       0.00000000
O        7.77398818       5.81485932       3.61578443  T      -0.29788645       0.25357476      -0.19118647
O        5.60275871       8.24360867       2.59161181  T      -0.12302535       0.62750040      -1.42640584
O        8.58153677       8.37666027       3.60215769  T       0.81545868      -0.02859173      -0.45031309
O        3.49367238       4.16766225      11.51221740  T      -0.61938151      -0.21069168      -0.20106315
O        1.13720571       4.86132755      11.36641528  T      -0.15718826      -0.22463790       0.25518531
O        1.72392024       0.90020062      10.37527321  T       0.07729822      -0.21073460      -0.13145347
O        2.77462987       3.13267854       9.31404151  T      -0.59096304       0.12599627      -0.32251033
O        3.55456299       1.00033069       8.19943120  T       0.48038649       0.46538379       0.57199616
O        1.03027633       1.62403714       7.94858147  T      -0.74177876      -0.45725323       0.31486662
O        0.43593284       4.16711807       7.87944202  T       0.09004623       0.26291837      -0.17953411
O        9.24653136       1.31462047      11.36787862  T      -0.11991790       0.05077117      -0.96289415
O        5.96436476       2.56323281       7.80314823  T       0.56118141      -0.23189406       0.18361378
O        5.27381562       4.04583436       9.73486309  T      -0.19852602       0.40580122       0.67427869
O        7.37627675       2.45798169      10.03691849  T       0.67330136       0.11248939       0.07064638
O        6.74671462       0.17795486      11.33060520  T      -0.52872400       0.18671948      -0.27697660
O        7.49746047       4.82322075       8.91965508  T      -0.37140607      -0.34374080      -1.03976041
O        8.07888479       9.77530339       6.58486665  T      -0.44176273       0.59820862       0.24823122
O        4.10830900       7.03796622       6.81710582  T      -0.16104543       0.33910279       0.19973619
O        3.99243884       9.58390230      11.20758538  T       0.72231177      -0.11099574      -0.72238330
O        3.05720487       8.32545915       8.84788263  T      -0.11319902      -0.43906562      -0.25909000
O        1.53249271       6.59969295       7.45887373  T       0.04385386      -0.48026800      -0.70408944
O        3.33569748       5.61486305       9.05392405  T      -0.40694294       0.55688558       0.46767537
O        0.15722966       6.45111732       9.54789977  T      -0.67298183      -0.93627550      -0.21853395
O        2.24768877       7.37247408      11.12091057  T       0.30312482      -0.23060158       0.50988882
O        4.93942746       7.38404735      10.24659038  T      -0.37265473       0.01846802       1.10894671
O        8.18646027       0.02559726       9.16237548  T       0.40775162      -0.10720322      -0.08434618
O        7.51495954       7.20154935      11.32216162  T      -0.25671309      -0.19619596      -0.72699169
O        6.20227448       5.50955301       6.87473618  T       0.32527798       0.18499025      -0.17909064
O        5.81289241       9.87400481       8.00965125  T      -0.06158005      -0.25224398      -0.43487372
O        8.88439735       6.08523146       7.15588722  T      -0.18388682       0.13154937       0.83665343
O        7.23592858       7.67766108       8.17754143  T      -0.63157213      -0.02696316       0.15239398
O        3.55000000       4.18000000       1.53000000  F       0.00000000       0.00000000       0.00000000
O        1.14000000       4.89000000       1.35000000  F       0.00000000       0.00000000       0.00000000
O        9.29000000       1.31000000       1.44000000  F       0.00000000       0.00000000       0.00000000
O        6.84000000       0.20000000       1.30000000  F       0.00000000       0.00000000       0.00000000
O        3.95000000       9.60000000       1.25000000  F       0.00000000       0.00000000       0.00000000
O        2.28000000       7.42000000       1.08000000  F       0.00000000       0.00000000       0.00000000
O        7.52000000       7.21000000       1.37000000  F       0.00000000       0.00000000       0.00000000
Si       2.11929669       3.95874203      12.32399154  T       0.26489280      -0.30349761       0.38044939
Si       2.90878680       3.63328305      15.05813813  T       0.31460067      -0.22396717      -0.85221652
Si       0.86620893       1.15008254      11.72436671  T      -0.86829383      -0.17942754      -1.04434966
Si       8.30733055       0.99488713      15.60792110  T       0.94240945       1.16268338       0.14362932
Si       5.47492244       2.02854066      14.43055694  T       1.92291039       1.13577498       0.23214086
Si       4.76305499       5.89266512      16.09618353  T      -0.40115700      -1.62472277       0.58855319
Si       0.01914150       9.14068371      13.87911858  T       0.26441980      -0.03114049       0.34733568
Si       6.19285615       5.19626914      13.63927481  T      -0.23651973      -0.69351608      -1.46673192
Si       5.41834930       9.76174900      12.11597780  T      -0.62360153       0.48131572       1.73641229
Si       8.39567751       7.03464213      12.71468435  T      -0.02778714      -0.14115572      -0.66585599
Si       3.07745515       4.30854298      20.21399836  T       1.43223754      -0.22770249      -0.00731625
Si       2.10603229       1.46594219      19.08471267  T      -0.52865309      -0.47175404      -1.07375718
Si       0.48342941       2.67707351      16.93694218  T      -0.15137732      -0.15505395      -1.78672780
Si       4.93099937       1.57649409      17.63970366  T       0.58958407      -0.58457519      -0.80302670
Si       5.95863346       3.75755307      19.68597146  T       0.07763362      -0.65667047       0.21648772
Si       7.67532266       1.22625517      20.58823160  T       0.95419398       1.04639870      -1.71183425
Si       2.57441607       8.74588882      20.35911680  T      -0.13697729       0.27843727      -0.16537662
Si       2.90654741       6.70902583      18.13569014  T       0.82569045       0.73659563       0.53904706
Si       1.08654536       6.14570988      21.35328611  T       0.29136141      -0.52465010      -1.62541738
Si       0.17368183       5.56302700      18.38705618  T      -1.02243979      -0.25833962       0.00558725
Si       6.13748839       9.23140777      22.46592176  T      -1.96761606      -0.92131218       0.26633845
Si       7.12294400       6.25367484      18.15004975  T      -0.44584114       0.36833806       0.07351067
Si       7.17336375       9.48915218      18.16605440  T       0.01965673      -0.82569821       0.64232912
Si       2.10000000       3.98000000       2.32000000  F       0.00000000       0.00000000       0.00000000
Si       2.93516328       3.64394955       5.04596605  T      -0.26235166      -0.35683511      -0.24904548
Si       0.89000000       1.15000000       1.77000000  F       0.00000000       0.00000000       0.00000000
Si       8.33701870       1.06229746       5.59929261  T       0.14540451       0.63693941       0.16498004
Si       5.46531449       1.98086353       4.43289046  T       1.67993513      -0.12783360      -0.19614108
Si       4.79751318       5.82479754       6.10625736  T       0.42840002       0.71995571       1.01908763
Si       0.04553771       9.11482932       3.92928734  T       0.97338149      -0.48673104       1.44618090
Si       6.19484745       5.18350404       3.66666921  T      -0.27886493      -0.91151062      -1.28638078
Si       5.42000000       9.77000000       2.06000000  F       0.00000000       0.00000000       0.00000000
Si       8.41307214       7.03683311       2.75551393  T       0.70726662      -0.23220480       0.16801622
Si       3.71253129       4.27549202       9.91671769  T      -0.03750732      -0.32524394       0.68849815
Si       2.31103430       1.60419015       8.96494785  T      -0.21882777       0.05767489      -0.66147715
Si       0.49233062       2.82491935       6.94252769  T      -1.46428348       0.10436847       0.33543146
Si       5.02172821       1.21574126       7.47022503  T      -0.10068261       0.65235351       0.27865245
Si       6.56691534       3.45652980       9.03780724  T      -0.29448043       0.44662277       0.20971369
Si       7.95818855       0.99511132      10.49157985  T      -0.31656473      -1.00716283      -0.37774849
Si       3.54354372       8.23557590      10.42427308  T       0.67890591      -0.08847667       0.16149824
Si       2.99007105       6.90650381       8.04599961  T      -1.73472107      -0.09693724      -0.92790387
Si       0.93176336       6.45115629      10.99570836  T      -0.05611462      -0.12907914       0.80101788
Si       0.27203600       5.79630446       7.99676483  T       1.56506512      -0.01209628      -2.30365860
Si       5.90476731       7.05339944      11.55534263  T      -0.27982311      -0.32911104       1.61953048
Si       7.43052583       6.08200702       7.79516888  T       0.20100973       0.44711103      -1.06437351
Si       7.35375922       9.30011129       8.01211199  T       1.12273125      -0.52713978       1.64102859
Si       7.93000000       1.02000000       0.50000000  F       0.00000000       0.00000000       0.00000000
Si       0.91000000       6.44000000       0.98000000  F       0.00000000       0.00000000       0.00000000
Si       5.91000000       7.08000000       1.49000000  F       0.00000000       0.00000000       0.00000000
C        4.96071672       5.01584017      25.01635836  T       0.46742788       0.06392976     -13.18723359
F        5.80038760       6.05832472      25.01832566  T      -0.26441939       0.14646689     -20.81454980
F        5.80746391       3.93389150      25.01856772  T      -0.21713696      -0.15137309     -20.79588911
153
Lattice="10.0 0.0 0.0 0.0 10.0 0.0 0.0 0.0 43.74" Properties=species:S:1:pos:R:3:move_mask:L:1:momenta:R:3 etch=trj_CF2_30eV_case1 idx=0 index=0 source=trj_CF2_30eV_case1/0000/OUTCAR converged=T time_fs=17.0 pbc="T T T"
O        2.22815596       4.57902907      13.84775323  T      -0.70739319       1.29317752       0.42749674
O        1.48246468       2.46553028      12.47985874  T      -0.21286684       0.13286206      -1.57020224
O        3.87191752       2.66595887      14.22330256  T      -0.50570177      -1.01636623       0.69282118
O        3.81189738       4.58387668      16.09746380  T      -0.59455539      -0.22442568       0.39547345
O        1.65635734       2.88425024      15.85924867  T       0.74884264       0.11591327       0.59427734
O        5.06736128       1.66377119      16.08702944  T      -0.38711784       0.51761678      -0.47689463
O        5.17192940       0.86288068      13.25870520  T      -1.46831987       0.80476573       0.29340829
O        6.15663916       3.60665790      14.04714452  T      -0.05701473      -0.06062074       0.14997355
O        7.08127227       1.37507845      14.66977705  T       0.03299197       0.87521694       0.73508588
O        9.03868924       2.27907850      16.32101101  T      -0.43335099       0.15657508       1.14582631
O        9.55821365       0.42131539      14.75826577  T       0.76298239      -0.19849546       0.31668616
O        0.90412130       9.74924511      12.63762828  T       0.47434163      -0.18648276      -0.31767649
O        1.14991881       8.23706580      14.62502934  T      -0.97851109       0.11429916      -0.10948913
O        9.87925826       6.97733266      12.13299354  T       1.06829496      -0.39514187       1.27369060
O        5.20473662       6.17912412      14.57051902  T       1.01887398      -0.16045516       0.62526434
O        5.63801952       5.59582217      12.18567076  T       0.49285036      -0.57659327      -0.22539274
O        7.77701388       5.81483339      13.63855000  T      -0.29172136       0.35451422       0.06516043
O        5.59200219       8.28088527      12.63016056  T      -0.15523272       0.31446746      -0.40755983
O        8.59607535       8.38124343      13.63319727  T       0.67803614      -0.28593825      -0.12565093
O        2.42839616       5.19531444      21.47465882  T      -0.01332969      -0.55195422       0.50244978
O        0.19799478       6.17500231      22.77217280  T      -0.09395471      -0.29102397      -0.06275030
O        1.85649639       0.15357625      20.00351875  T       0.36478795       0.41652864       0.82261733
O        2.22233568       2.98548585      19.93909327  T       0.62485768      -0.44460286       0.43338969
O        3.45279095       1.27264416      18.20844979  T      -0.10060590       0.32358203       0.17763698
O        0.89428743       1.54012139      18.03096523  T      -0.61270289       0.90719150       0.32503581
O        0.40715113       4.10964692      17.76295379  T       0.08542703      -0.68460440       0.29534614
O        9.09360428       1.35877420      21.41875016  T       0.04425009       0.18442490       0.41574340
O        5.41735486       2.99754039      18.31141403  T       0.14894813       0.69805397      -0.99660596
O        4.64196581       3.94934070      20.62334480  T       0.51079221      -0.28825977       0.06547068
O        7.07933803       2.70420985      20.26258728  T      -0.36051173       0.40600647       0.86485658
O        6.42468049       0.45863019      21.43422539  T      -0.00737085       0.74360137       0.42142834
O        6.61763298       5.22346729      19.38897182  T      -0.16688099      -0.03693135      -0.05889246
O        7.93558021       9.80934678      16.69790741  T       0.14657557      -0.05737581       0.20582743
O        3.83582645       7.00858438      16.86732858  T      -0.22512146      -0.45431408      -0.19890877
O        3.75060090       9.41481742      21.42343740  T       0.80182263      -0.20500018      -0.22991891
O        3.20966254       7.97573581      19.11808479  T       0.31512158       0.38070920       0.26032052
O        1.24970131       6.63755210      17.73955899  T      -0.01764148       0.34762311      -0.44047938
O        3.20614223       5.26610293      18.88220576  T      -0.06046751       0.17794644      -0.28136828
O        0.33613039       5.55954798      20.07197906  T      -0.97471900       0.27498980       0.08999741
O        1.51691478       7.69348546      21.08506731  T      -0.07681719       0.81086912       0.79368844
O        4.80018943       8.47558620      21.95716137  T      -0.00770494      -0.30562682       0.68385792
O        8.01648421       0.20263725      19.36614928  T       0.16603529      -0.14401086      -0.20143848
O        6.92068152       8.83365131      23.74199336  T      -0.36775542      -0.19363312      -0.55671181
O        6.22225721       5.76869561      16.89729874  T      -0.09279294       0.48864352       0.13986430
O        5.75868243       0.27466551      18.19720706  T      -0.21071601      -0.62510056       0.29217299
O        8.68694165       6.00723603      17.91064590  T      -0.29944215       0.57702315       0.09230551
O        6.97489375       7.89798391      18.40747135  T      -0.14414413      -0.07043568      -0.26913099
O        2.17611404       4.60391879       3.81931355  T      -1.43562613       1.47147212       0.27020426
O        1.48853959       2.44427494       2.44149944  T       0.30552969       0.41740460      -2.21471666
O        3.89979026       2.69969542       4.18120461  T      -0.15781392      -0.32979558      -0.12889694
O        3.69202382       4.53249344       6.12383696  T       0.82564346       0.02442239       0.03734707
O        1.67074353       2.92363624       5.81262745  T      -0.49124500       0.10634075      -0.07954075
O        4.85681309       1.32493983       5.84059775  T       0.57484038      -0.06926909       0.20180867
O        5.22334282       0.84828498       3.21614359  T      -0.47612274       0.60211986      -0.46387584
O        6.16902337       3.61761230       4.04764439  T       0.17172905      -0.25842925       0.22048749
O        7.08453377       1.40353712       4.70939491  T      -0.11905015       1.45091890       1.19044791
O        9.08293201       2.40916660       6.32674022  T       1.18734603      -1.00069721       0.77614467
O        9.60505602       0.48350284       4.69096466  T       0.89377426       1.12401608      -0.45855762
O        0.92494696       9.77301199       2.57593876  T       0.81931238      -0.47491032      -0.87994424
O        1.12746607       8.24491158       4.59822848  T      -1.00046168      -0.11027468      -0.35942255
O        9.87000000       6.98000000       2.02000000  F       0.00000000       0.00000000       0.00000000
O        5.21148155       6.12222738       4.56970997  T       1.01107460      -0.91185186       0.66952026
O        5.59000000       5.63000000       2.17000000  F       0.00000000       0.00000000       0.00000000
O        7.77201768       5.81631262       3.61462460  T      -0.34386494       0.21922030      -0.18661762
O        5.60199519       8.24725002       2.58286299  T      -0.12565657       0.55617915      -1.42089872
O        8.58662445       8.37672019       3.59947961  T       0.84035839       0.04853574      -0.42170504
O        3.49007406       4.16635251      11.51107588  T      -0.55133513      -0.21588866      -0.16943938
O        1.13617352       4.86008262      11.36799835  T      -0.17880218      -0.18075440       0.26061265
O        1.72460697       0.89894646      10.37402494  T       0.14637896      -0.19788240      -0.27532144
O        2.77081476       3.13320179       9.31193368  T      -0.65048770       0.04620816      -0.36339756
O        3.55809157       1.00307875       8.20271784  T       0.66778073       0.42977923       0.49872965
O        1.02564020       1.62130765       7.95053014  T      -0.76783030      -0.43098148       0.31943665
O        0.43649350       4.16889990       7.87829969  T       0.09270344       0.31620252      -0.19318146
O        9.24618567       1.31491598      11.36208037  T       0.00751885       0.04518445      -0.92505607
O        5.96773870       2.56165396       7.80418710  T       0.53760257      -0.28150617       0.15531112
O        5.27242652       4.04839963       9.73917472  T      -0.25164581       0.42875934       0.72922761
O        7.38046097       2.45859299      10.03729572  T       0.68859277       0.08710792       0.05141640
O        6.74397032       0.17940209      11.32848519  T      -0.36662071       0.28399290      -0.41203260
O        7.49516424       4.82125651       8.91299567  T      -0.37626490      -0.29560853      -1.12890046
O        8.07602153       9.77893523       6.58668124  T      -0.49018499       0.58476044       0.34245986
O        4.10682519       7.04041319       6.81876902  T      -0.32169780       0.45700627       0.34096610
O        3.99693028       9.58335677      11.20312236  T       0.74044842      -0.06551257      -0.73043883
O        3.05646084       8.32273131       8.84638521  T      -0.12917415      -0.44888345      -0.22738292
O        1.53289635       6.59689292       7.45408218  T       0.08781088      -0.43040855      -0.85891085
O        3.33307648       5.61852573       9.05670360  T      -0.44660500       0.63439946       0.43818146
O        0.15315437       6.44515482       9.54631360  T      -0.65247030      -1.00537555      -0.29681208
O        2.25004079       7.37136257      11.12398147  T       0.46204008      -0.13179376       0.49008691
O        4.93746089       7.38386333      10.25376099  T      -0.26649513      -0.07991328       1.22621549
O        8.18923811       0.02513308       9.16234778  T       0.49803376      -0.04402186       0.07630477
O        7.51329690       7.20029063      11.31775316  T      -0.28387993      -0.21391080      -0.70723173
O        6.20425819       5.51072212       6.87356963  T       0.32064544       0.19589093      -0.20085881
O        5.81250558       9.87254217       8.00691123  T      -0.06303134      -0.22416194      -0.45709168
O        8.88384136       6.08608812       7.16083418  T       0.00491814       0.14790120       0.77249793
O        7.23198149       7.67738365       8.17850807  T      -0.65363191      -0.06375575       0.16254465
O        3.55000000       4.18000000       1.53000000  F       0.00000000       0.00000000       0.00000000
O        1.14000000       4.89000000       1.35000000  F       0.00000000       0.00000000       0.00000000
O        9.29000000       1.31000000       1.44000000  F       0.00000000       0.00000000       0.00000000
O        6.84000000       0.20000000       1.30000000  F       0.00000000       0.00000000       0.00000000
O        3.95000000       9.60000000       1.25000000  F       0.00000000       0.00000000       0.00000000
O        2.28000000       7.42000000       1.08000000  F       0.00000000       0.00000000       0.00000000
O        7.52000000       7.21000000       1.37000000  F       0.00000000       0.00000000       0.00000000
Si       2.12008302       3.95781117      12.32544883  T       0.18266208      -0.22737396       0.45350116
Si       2.90979463       3.63261197      15.05517178  T       0.26064470      -0.15848160      -0.84292336
Si       0.86309744       1.14937364      11.72076214  T      -0.90959964      -0.22662970      -1.01706482
Si       8.31059292       0.99888800      15.60850220  T       0.92203620       1.12209578       0.18880821
Si       5.48168841       2.03253841      14.43144789  T       1.94321133       1.14894720       0.27731574
Si       4.76179213       5.88698140      16.09829051  T      -0.31999112      -1.62334194       0.61538009
Si       0.01997124       9.14078645      13.88030567  T       0.20973705       0.09131379       0.32861961
Si       6.19213893       5.19371775      13.63440397  T      -0.17247160      -0.76480467      -1.31402098
Si       5.41595094       9.76379544      12.12209055  T      -0.74697878       0.69136619       1.75572643
Si       8.39553355       7.03415121      12.71234407  T      -0.05336700      -0.13948262      -0.67271063
Si       3.08261898       4.30787895      20.21412529  T       1.51845650      -0.15263676       0.07956492
Si       2.10433344       1.46462575      19.08101904  T      -0.44220465      -0.28010147      -1.03615022
Si       0.48282064       2.67670030      16.93081462  T      -0.19556952      -0.05746750      -1.71357873
Si       4.93314970       1.57447077      17.63714921  T       0.63888514      -0.57160740      -0.65639762
Si       5.95886226       3.75516121      19.68650971  T       0.05368536      -0.70958903       0.08904521
Si       7.67855614       1.22982437      20.58237191  T       0.89342275       0.99267182      -1.63515048
Si       2.57385084       8.74683281      20.35881886  T      -0.18578855       0.26195055      -0.00331438
Si       2.90907843       6.71148793      18.13761843  T       0.61969510       0.67076024       0.56238313
Si       1.08763828       6.14387851      21.34785372  T       0.33417181      -0.52029805      -1.47716945
Si       0.17012320       5.56219485      18.38714503  T      -1.01022073      -0.21758504       0.04314864
Si       6.13088945       9.22844903      22.46695241  T      -1.80126438      -0.76551202       0.32121317
Si       7.12127402       6.25495403      18.15044976  T      -0.50938666       0.36220118       0.15576661
Si       7.17349220       9.48639056      18.16797253  T       0.05385460      -0.75186953       0.45266266
Si       2.10000000       3.98000000       2.32000000  F       0.00000000       0.00000000       0.00000000
Si       2.93389824       3.64265026       5.04487050  T      -0.46067379      -0.38381798      -0.37584662
Si       0.89000000       1.15000000       1.77000000  F       0.00000000       0.00000000       0.00000000
Si       8.33787058       1.06449986       5.59995318  T       0.34347523       0.62048553       0.21298514
Si       5.47122717       1.98047516       4.43211969  T       1.69811548      -0.09355970      -0.24355394
Si       4.79903171       5.82693827       6.10971779  T       0.43917227       0.50384274       0.95888866
Si       0.04876754       9.11348882       3.93423304  T       0.87010375      -0.27549110       1.37851050
Si       6.19393053       5.18024079       3.66215543  T      -0.24472638      -0.95389409      -1.29234141
Si       5.42000000       9.77000000       2.06000000  F       0.00000000       0.00000000       0.00000000
Si       8.41557188       7.03597308       2.75600765  T       0.72117308      -0.25907209       0.11415150
Si       3.71238772       4.27439897       9.91904729  T      -0.04749458      -0.29868170       0.64034566
Si       2.30993399       1.60456951       8.96284135  T      -0.41076675       0.15867852      -0.54254608
Si       0.48749122       2.82519339       6.94385411  T      -1.29607112       0.05285536       0.42501412
Si       5.02145964       1.21797931       7.47111362  T      -0.05117759       0.62571159       0.22935336
Si       6.56600433       3.45807622       9.03866545  T      -0.22637662       0.43650908       0.28189817
Si       7.95666738       0.99150270      10.49018310  T      -0.55370488      -1.05410067      -0.42041881
Si       3.54569918       8.23518356      10.42481842  T       0.55141328      -0.13610810       0.14898894
Si       2.98421844       6.90608022       8.04279328  T      -1.60792980      -0.14482218      -0.90316873
Si       0.93134068       6.45052360      10.99857842  T      -0.18474819      -0.23305670       0.83709843
Si       0.27727266       5.79615306       7.98893963  T       1.42491379      -0.07533524      -2.16629564
Si       5.90373745       7.05241770      11.56092650  T      -0.30892651      -0.23120378       1.57079002
Si       7.43104280       6.08351880       7.79163496  T       0.09317940       0.41688531      -0.95418268
Si       7.35757359       9.29826861       8.01758074  T       1.05445035      -0.52566408       1.48258547
Si       7.93000000       1.02000000       0.50000000  F       0.00000000       0.00000000       0.00000000
Si       0.91000000       6.44000000       0.98000000  F       0.00000000       0.00000000       0.00000000
Si       5.91000000       7.08000000       1.49000000  F       0.00000000       0.00000000       0.00000000
C        4.96511901       5.01623372      24.90850197  T       0.60584659       0.03164681     -13.18969795
F        5.79886073       6.05894477      24.91071036  T      -0.32433581       0.09414068     -20.81388398
F        5.80611925       3.93333755      24.91105499  T      -0.30170428      -0.06309626     -20.79286831
153
Lattice="10.0 0.0 0.0 0.0 10.0 0.0 0.0 0.0 43.74" Properties=species:S:1:pos:R:3:move_mask:L:1:momenta:R:3 etch=trj_CF2_30eV_case1 idx=0 index=0 source=trj_CF2_30eV_case1/0000/OUTCAR converged=T time_fs=18.0 pbc="T T T"
O        2.22385686       4.58682254      13.85044596  T      -0.69207757       1.24310605       0.44869055
O        1.48100999       2.46612846      12.47007359  T      -0.26072634       0.06235710      -1.61575903
O        3.86885514       2.65958446      14.22756324  T      -0.49133752      -1.05890016       0.69386409
O        3.80794613       4.58211428      16.09979882  T      -0.69203935      -0.34988056       0.36474026
O        1.66136433       2.88506862      15.86261051  T       0.88118246       0.15014097       0.50006215
O        5.06503740       1.66704860      16.08344982  T      -0.36960029       0.54935696      -0.68623087
O        5.16282002       0.86792288      13.26059615  T      -1.49730224       0.83698608       0.32223943
O        6.15628123       3.60647367      14.04798508  T      -0.05959318       0.00091392       0.12332775
O        7.08146759       1.38057535      14.67431649  T       0.03228240       0.91444763       0.74334823
O        9.03599346       2.28023339      16.32817517  T      -0.44565332       0.21949751       1.18623279
O        9.56312785       0.41998563      14.76007070  T       0.83568596      -0.23230175       0.27291749
O        0.90698167       9.74832568      12.63554790  T       0.45617260      -0.11299337      -0.35899547
O        1.14410319       8.23751683      14.62457565  T      -0.91362465       0.03086567      -0.03690064
O        9.88625535       6.97471215      12.14067651  T       1.20756299      -0.45796379       1.22951908
O        5.21114004       6.17800308      14.57436692  T       1.06639245      -0.20567766       0.62751633
O        5.64087580       5.59222598      12.18393083  T       0.43648561      -0.59478958      -0.34220911
O        7.77506885       5.81700858      13.63888970  T      -0.34166529       0.35382039       0.04490212
O        5.59113410       8.28212168      12.62795038  T      -0.12718218       0.08834797      -0.31017701
O        8.60011508       8.37947177      13.63238937  T       0.63654593      -0.29096452      -0.13781328
O        2.42840129       5.19181157      21.47761431  T       0.01488595      -0.58864483       0.45885162
O        0.19757943       6.17316392      22.77150226  T      -0.04073590      -0.30780720      -0.15681648
O        1.85872597       0.15613755      20.00866611  T       0.36120534       0.41849896       0.85291139
O        2.22603834       2.98195753      19.94146992  T       0.58220455      -0.70235422       0.34095829
O        3.45202675       1.27463140      18.20959516  T      -0.14584759       0.32353513       0.19383676
O        0.89035524       1.54570153      18.03295445  T      -0.66803269       0.90936971       0.32247720
O        0.40763144       4.10519084      17.76471975  T       0.07023543      -0.76350840       0.28073664
O        9.09385448       1.35994587      21.42128061  T       0.03685383       0.19723691       0.40775330
O        5.41838841       3.00187026      18.30536861  T       0.18790247       0.71092411      -0.97190548
O        4.64502545       3.94757941      20.62386972  T       0.48532476      -0.28519717       0.10604046
O        7.07719822       2.70672955      20.26795839  T      -0.33578294       0.41437619       0.88410308
O        6.42484345       0.46314716      21.43690378  T       0.06074406       0.72615471       0.45132224
O        6.61668944       5.22342546      19.38850529  T      -0.14067295       0.02274534      -0.09289482
O        7.93630557       9.80894042      16.69956259  T       0.09007815      -0.07383188       0.33208549
O        3.83461437       7.00579247      16.86591595  T      -0.16967106      -0.45490976      -0.26080541
O        3.75556086       9.41347983      21.42193407  T       0.81293382      -0.23057281      -0.26000418
O        3.21171996       7.97806009      19.11956890  T       0.35502907       0.37593972       0.22267798
O        1.24998528       6.63967882      17.73707289  T       0.10910013       0.34369688      -0.36781099
O        3.20578047       5.26737345      18.88045394  T      -0.05705497       0.23466458      -0.28726730
O        0.32971967       5.56111986      20.07182495  T      -1.11298456       0.23705484      -0.14013318
O        1.51663501       7.69879121      21.08988575  T      -0.01510544       0.91415500       0.77585564
O        4.79953257       8.47338072      21.96121655  T      -0.20859675      -0.41412684       0.63587359
O        8.01765112       0.20183017      19.36500084  T       0.21417806      -0.11862129      -0.17261837
O        6.91823409       8.83244585      23.73831069  T      -0.42847477      -0.19969935      -0.64083704
O        6.22143460       5.77172307      16.89800800  T      -0.17505104       0.49684653       0.09137471
O        5.75733741       0.27078137      18.19901237  T      -0.22773845      -0.63919834       0.29537702
O        8.68523671       6.01079701      17.91125942  T      -0.25544543       0.58246483       0.10737457
O        6.97395224       7.89724097      18.40587130  T      -0.16275426      -0.17138340      -0.25145784
O        2.16733432       4.61269733       3.82113195  T      -1.42297229       1.38502606       0.32074182
O        1.49054634       2.44697356       2.42767205  T       0.34831127       0.46121112      -2.28828723
O        3.89880172       2.69766092       4.18033060  T      -0.16451170      -0.33231041      -0.15555277
O        3.69763459       4.53319525       6.12434399  T       0.99929229       0.20137755       0.12556165
O        1.66783716       2.92441237       5.81200916  T      -0.45547753       0.14657349      -0.12137524
O        4.86036971       1.32446386       5.84228195  T       0.58341489      -0.08493505       0.34456356
O        5.22047926       0.85208804       3.21330018  T      -0.45566360       0.63600088      -0.46227754
O        6.17010334       3.61596820       4.04895087  T       0.17992294      -0.27705154       0.20423855
O        7.08365157       1.41268443       4.71664100  T      -0.16626590       1.52744175       1.16945443
O        9.08962008       2.40271735       6.33129858  T       0.98617362      -1.10018287       0.70672364
O        9.61044802       0.49048573       4.68805663  T       0.86084687       1.15032152      -0.48832513
O        0.93001753       9.77000156       2.57051883  T       0.83209949      -0.50471148      -0.88537469
O        1.12181571       8.24367558       4.59639420  T      -0.83614039      -0.29552919      -0.23550291
O        9.87000000       6.98000000       2.02000000  F       0.00000000       0.00000000       0.00000000
O        5.21777509       6.11658905       4.57385153  T       1.03856729      -0.92390562       0.67831615
O        5.59000000       5.63000000       2.17000000  F       0.00000000       0.00000000       0.00000000
O        7.76976871       5.81754593       3.61349251  T      -0.38833205       0.18214536      -0.18226523
O        5.60121591       8.25041385       2.57419184  T      -0.12820939       0.47225096      -1.40109500
O        8.59183962       8.37725847       3.59698221  T       0.85691605       0.12682968      -0.39168504
O        3.48691511       4.16501184      11.51015055  T      -0.47670190      -0.22081785      -0.13067559
O        1.13501325       4.85910811      11.36961674  T      -0.19881371      -0.13683403       0.26674615
O        1.72571525       0.89776956      10.37189499  T       0.21421428      -0.18567457      -0.41789973
O        2.76665770       3.13326738       9.30958783  T      -0.70208013      -0.02242839      -0.39985292
O        3.56274140       1.00561038       8.20556043  T       0.84405706       0.39540730       0.42819517
O        1.02085448       1.61875376       7.95249863  T      -0.79052374      -0.40017339       0.32127407
O        0.43707243       4.17098427       7.87706342  T       0.09602484       0.36090187      -0.21021315
O        9.24662038       1.31517177      11.35652570  T       0.13322969       0.03776043      -0.88410426
O        5.97096451       2.55978754       7.80506227  T       0.51321319      -0.32519485       0.13062312
O        5.27075230       4.05108716       9.74380542  T      -0.29089850       0.44547500       0.77795516
O        7.38472022       2.45905727      10.03754152  T       0.69770880       0.06482853       0.02785677
O        6.74219198       0.18143166      11.32556707  T      -0.21535652       0.37586270      -0.53601959
O        7.49284363       4.81959471       8.90580155  T      -0.37936939      -0.24550691      -1.21366909
O        8.07287492       9.78248349       6.58906492  T      -0.53382325       0.57117611       0.43312527
O        4.10437161       7.04356183       6.82127561  T      -0.47570020       0.56657519       0.47336449
O        4.00152765       9.58310935      11.19862657  T       0.75687951      -0.01404957      -0.73310788
O        3.05561895       8.31995430       8.84510396  T      -0.14503503      -0.45502820      -0.18870385
O        1.53357031       6.59442070       7.44830761  T       0.13142164      -0.37389537      -1.02384054
O        3.33021681       5.62263145       9.05931033  T      -0.48457589       0.70074094       0.41169072
O        0.14923928       6.43877974       9.54427130  T      -0.62081964      -1.07053711      -0.36670110
O        2.25334633       7.37084878      11.12692520  T       0.61268846      -0.03661195       0.46860780
O        4.93616642       7.38305319      10.26163746  T      -0.15447527      -0.18500340       1.33837785
O        8.19258224       0.02505281       9.16331620  T       0.59171403       0.01711694       0.23890292
O        7.51148563       7.19892220      11.31349618  T      -0.30485346      -0.23189258      -0.67770394
O        6.20620937       5.51195881       6.87227082  T       0.31478524       0.20701456      -0.22210022
O        5.81213374       9.87125174       8.00404535  T      -0.05652042      -0.19636741      -0.47577246
O        8.88447222       6.08705191       7.16535062  T       0.20123876       0.16652021       0.69677594
O        7.22790865       7.67687563       8.17953785  T      -0.67250810      -0.10189313       0.17296204
O        3.55000000       4.18000000       1.53000000  F       0.00000000       0.00000000       0.00000000
O        1.14000000       4.89000000       1.35000000  F       0.00000000       0.00000000       0.00000000
O        9.29000000       1.31000000       1.44000000  F       0.00000000       0.00000000       0.00000000
O        6.84000000       0.20000000       1.30000000  F       0.00000000       0.00000000       0.00000000
O        3.95000000       9.60000000       1.25000000  F       0.00000000       0.00000000       0.00000000
O        2.28000000       7.42000000       1.08000000  F       0.00000000       0.00000000       0.00000000
O        7.52000000       7.21000000       1.37000000  F       0.00000000       0.00000000       0.00000000
Si       2.12056297       3.95715881      12.32716653  T       0.08997224      -0.14461892       0.52907348
Si       2.91060471       3.63218116      15.05224787  T       0.20185272      -0.08689301      -0.82817753
Si       0.85985519       1.14849343      11.71724958  T      -0.94276673      -0.27734380      -0.99232197
Si       8.31377454       1.00271863      15.60924225  T       0.89651611       1.06548172       0.23439444
Si       5.48849786       2.03657007      14.43249619  T       1.94769000       1.15531073       0.32196505
Si       4.76082084       5.88132106      16.10048229  T      -0.23501233      -1.61174160       0.63688607
Si       0.02060806       9.14132895      13.88140007  T       0.15455881       0.21970105       0.29419211
Si       6.19165531       5.19092466      13.63010702  T      -0.10331269      -0.83123461      -1.13961060
Si       5.41313162       9.76659521      12.12823935  T      -0.86359293       0.91062524       1.75702387
Si       8.39531207       7.03366671      12.70997638  T      -0.07177154      -0.13757126      -0.68172766
Si       3.08806201       4.30746918      20.21455115  T       1.59123443      -0.08314569       0.16301653
Si       2.10294077       1.46398628      19.07747803  T      -0.35420144      -0.08533172      -0.98647141
Si       0.48207014       2.67667609      16.92497569  T      -0.23177391       0.04429679      -1.62218975
Si       4.93546081       1.57250048      17.63511568  T       0.68129773      -0.55427274      -0.50656127
Si       5.95901240       3.75259930      19.68658227  T       0.03284824      -0.75356274      -0.04942357
Si       7.68156485       1.23318821      20.57681523  T       0.82598537       0.92918690      -1.53882731
Si       2.57312018       8.74772517      20.35910121  T      -0.23121787       0.24912430       0.16569296
Si       2.91087339       6.71371605      18.13961558  T       0.40566854       0.60332834       0.57802819
Si       1.08888491       6.14208353      21.34297226  T       0.37881573      -0.50396488      -1.31163902
Si       0.16662871       5.56150357      18.38734470  T      -0.98580467      -0.17812116       0.06855993
Si       6.12491169       9.22608071      22.46815612  T      -1.61382469      -0.58442577       0.36462670
Si       7.11937994       6.25620253      18.15114127  T      -0.57375741       0.35066551       0.23978818
Si       7.17374066       9.48390085      18.16921233  T       0.08823276      -0.67074547       0.25527327
Si       2.10000000       3.98000000       2.32000000  F       0.00000000       0.00000000       0.00000000
Si       2.93194648       3.64128025       5.04334880  T      -0.65389092      -0.39664885      -0.49190578
Si       0.89000000       1.15000000       1.77000000  F       0.00000000       0.00000000       0.00000000
Si       8.33942805       1.06662626       5.60078288  T       0.54770431       0.59353740       0.26140162
Si       5.47717447       1.98021275       4.43119420  T       1.69956949      -0.05592735      -0.28422048
Si       4.80057910       5.82832452       6.11296211  T       0.44440033       0.29009218       0.89624015
Si       0.05160653       9.11292493       3.93891122  T       0.75085031      -0.04356213       1.29369789
Si       6.19313938       5.17683544       3.65764365  T      -0.20711895      -0.99273896      -1.28519816
Si       5.42000000       9.77000000       2.06000000  F       0.00000000       0.00000000       0.00000000
Si       8.41811051       7.03502440       2.75631243  T       0.72939368      -0.28275409       0.06029245
Si       3.71218111       4.27340911       9.92117782  T      -0.07387867      -0.26629770       0.57476870
Si       2.30816288       1.60529430       8.96115344  T      -0.60099474       0.25438216      -0.42297243
Si       0.48330307       2.82529279       6.94551115  T      -1.09277646       0.00471903       0.52415771
Si       5.02138031       1.22010825       7.47182945  T       0.00754894       0.59007212       0.18014018
Si       6.56533102       3.45957627       9.03978335  T      -0.15901793       0.42008251       0.35795652
Si       7.95431705       0.98775246      10.48864373  T      -0.78933646      -1.08772959      -0.45879824
Si       3.54738978       8.23462268      10.42530735  T       0.41381918      -0.18479050       0.12925941
Si       2.97884552       6.90549417       8.03969597  T      -1.46113107      -0.18961776      -0.86563102
Si       0.93047892       6.44952588      11.00154479  T      -0.30619666      -0.33721394       0.85576658
Si       0.28197979       5.79577427       7.98163771  T       1.26334851      -0.14150015      -2.00509392
Si       5.90260775       7.05178653      11.56631529  T      -0.33676339      -0.12932957       1.50835516
Si       7.43117213       6.08492077       7.78850552  T      -0.01965115       0.38450548      -0.83382320
Si       7.36111280       9.29644018       8.02246467  T       0.96581953      -0.51878391       1.30772053
Si       7.93000000       1.02000000       0.50000000  F       0.00000000       0.00000000       0.00000000
Si       0.91000000       6.44000000       0.98000000  F       0.00000000       0.00000000       0.00000000
Si       5.91000000       7.08000000       1.49000000  F       0.00000000       0.00000000       0.00000000
C        4.97057369       5.01634931      24.80062547  T       0.72381573      -0.00392285     -13.19220607
F        5.79705202       6.05930632      24.80309893  T      -0.37298496       0.04683166     -20.81308431
F        5.80435788       3.93323531      24.80355852  T      -0.37776263       0.02285234     -20.78957183
153
Lattice="10.0 0.0 0.0 0.0 10.0 0.0 0.0 0.0 43.74" Properties=species:S:1:pos:R:3:move_mask:L:1:momenta:R:3 etch=trj_CF2_30eV_case1 idx=0 index=0 source=trj_CF2_30eV_case1/0000/OUTCAR converged=T time_fs=19.0 pbc="T T T"
O        2.21966734       4.59426897      13.85325216  T      -0.67181411       1.18033648       0.46436439
O        1.47926738       2.46630229      12.46003539  T      -0.30640743      -0.00485887      -1.65257351
O        3.86588886       2.65297039      14.23180981  T      -0.47460880      -1.09418938       0.68823961
O        3.80340835       4.57958237      16.10193919  T      -0.78503202      -0.47432845       0.33228490
O        1.66716214       2.88608679      15.86538461  T       1.00551899       0.18069397       0.40355633
O        5.06282527       1.67050914      16.07864253  T      -0.35084469       0.57709548      -0.87506829
O        5.15356277       0.87315008      13.26265818  T      -1.51641259       0.86500584       0.34907509
O        6.15590728       3.60667017      14.04865432  T      -0.06223433       0.06299058       0.09430739
O        7.08168695       1.38629637      14.67890178  T       0.04108774       0.94810158       0.75007231
O        9.03320739       2.28177062      16.33555845  T      -0.46295477       0.28080073       1.21702101
O        9.56845082       0.41848954      14.76163626  T       0.89573167      -0.25225783       0.23918759
O        0.90970994       9.74785626      12.63323178  T       0.43135550      -0.04022202      -0.39425469
O        1.13872198       8.23742843      14.62458906  T      -0.83745445      -0.06108284       0.04236139
O        9.89404606       6.97171613      12.14809811  T       1.32601003      -0.51721044       1.18904376
O        5.21782341       6.17658903      14.57821772  T       1.10995275      -0.25586775       0.62630040
O        5.64336984       5.58851894      12.18146453  T       0.37525934      -0.61284092      -0.46119380
O        7.77282206       5.81917582      13.63909539  T      -0.38976516       0.35199130       0.02153607
O        5.59044309       8.28198142      12.62637297  T      -0.09778900      -0.13187406      -0.20178397
O        8.60387866       8.37767324      13.63150217  T       0.58832349      -0.29463070      -0.15147008
O        2.42857701       5.18809174      21.48027854  T       0.04209463      -0.62254508       0.40765509
O        0.19749992       6.17122299      22.77023699  T       0.01527068      -0.32444066      -0.25622235
O        1.86092890       0.15872276      20.01397811  T       0.35617077       0.42447348       0.87609584
O        2.22949701       2.97689333      19.94328371  T       0.54596709      -0.94357919       0.25047614
O        3.45102802       1.27661463      18.21081182  T      -0.17654934       0.32230717       0.20060367
O        0.88608792       1.55127528      18.03492052  T      -0.72160635       0.90509091       0.31760327
O        0.40800535       4.10031001      17.76641005  T       0.05077405      -0.82247491       0.27083437
O        9.09405258       1.36119598      21.42374904  T       0.02725474       0.20998818       0.39560936
O        5.41966330       3.00625408      18.29948716  T       0.22746376       0.71554422      -0.94340768
O        4.64792076       3.94584139      20.62465144  T       0.45756191      -0.28075109       0.14897709
O        7.07522217       2.70929366      20.27343584  T      -0.30727126       0.42046793       0.89945417
O        6.42542837       0.46753032      21.43976913  T       0.12990162       0.70015097       0.48219297
O        6.61590243       5.22373875      19.38783480  T      -0.11613099       0.07834440      -0.12499870
O        7.93669142       9.80845301      16.70196918  T       0.03624664      -0.08361791       0.45004039
O        3.83374141       7.00300063      16.86413318  T      -0.11505952      -0.45438473      -0.31903075
O        3.76057280       9.41198819      21.42024285  T       0.81871523      -0.25509434      -0.29109238
O        3.21402024       7.98034759      19.12081602  T       0.39402077       0.36886375       0.18344272
O        1.25102796       6.64175717      17.73505751  T       0.22907742       0.33184443      -0.28736878
O        3.20544507       5.26896926      18.87870045  T      -0.05185755       0.28350537      -0.28167153
O        0.32247484       5.56246140      20.07026766  T      -1.24555271       0.20046786      -0.36541615
O        1.51671949       7.70467265      21.09459441  T       0.04151172       0.99775055       0.75815614
O        4.79761079       8.47049108      21.96495851  T      -0.41844295      -0.52781641       0.58225882
O        8.01911375       0.20118273      19.36402895  T       0.26212192      -0.09216364      -0.14417027
O        6.91543275       8.83119198      23.73414886  T      -0.48266948      -0.20951176      -0.71224675
O        6.22011146       5.77478900      16.89842480  T      -0.25536448       0.50116726       0.04500064
O        5.75588298       0.26682693      18.20082845  T      -0.24632617      -0.64797392       0.29567130
O        8.68380841       6.01438320      17.91196206  T      -0.20967610       0.58530615       0.12124114
O        6.97289341       7.89588558      18.40438984  T      -0.18232978      -0.26914257      -0.23056722
O        2.15865531       4.62089446       3.82323679  T      -1.40295083       1.28229784       0.36337415
O        1.49281707       2.44993164       2.41341486  T       0.39135791       0.50158334      -2.35476787
O        3.89776657       2.69562191       4.17929815  T      -0.17310361      -0.33118726      -0.18033415
O        3.70426045       4.53493127       6.12535162  T       1.15534617       0.36017828       0.19968582
O        1.66514965       2.92543611       5.81114335  T      -0.42023712       0.18684419      -0.15993553
O        4.86397382       1.32390645       5.84480068  T       0.59036655      -0.09563805       0.47274322
O        5.21775802       0.85608620       3.21046775  T      -0.42980556       0.66555041      -0.46039731
O        6.17123096       3.61421173       4.05014324  T       0.18722728      -0.29495500       0.18328684
O        7.08251752       1.42227630       4.72375147  T      -0.20028705       1.59537392       1.14671753
O        9.09499575       2.39566041       6.33540073  T       0.76130260      -1.19801664       0.62824746
O        9.61560900       0.49762337       4.68497263  T       0.81881647       1.17430972      -0.51591596
O        0.93516080       9.76682535       2.56507025  T       0.84299149      -0.52890602      -0.88915859
O        1.11723379       8.24125576       4.59535914  T      -0.65375062      -0.49478343      -0.09993343
O        9.87000000       6.98000000       2.02000000  F       0.00000000       0.00000000       0.00000000
O        5.22422919       6.11089246       4.57802536  T       1.06341054      -0.93083093       0.67995149
O        5.59000000       5.63000000       2.17000000  F       0.00000000       0.00000000       0.00000000
O        7.76725503       5.81854650       3.61238494  T      -0.42981190       0.14366070      -0.17874821
O        5.60042051       8.25302820       2.56568623  T      -0.13096035       0.37757948      -1.36697767
O        8.59713013       8.37827571       3.59467053  T       0.86487738       0.20417102      -0.36141194
O        3.48422853       4.16364111      11.50948443  T      -0.39792214      -0.22572086      -0.08507733
O        1.13373627       4.85839963      11.37127560  T      -0.21673919      -0.09436154       0.27383491
O        1.72723089       0.89666416      10.36890362  T       0.27869701      -0.17470467      -0.55521078
O        2.76221150       3.13295396       9.30703407  T      -0.74447492      -0.07672307      -0.43098327
O        3.56841882       1.00794151       8.20798927  T       1.00106765       0.36492743       0.36471046
O        1.01593952       1.61640127       7.95446943  T      -0.80995242      -0.36551026       0.32015646
O        0.43767412       4.17330941       7.87571137  T       0.10013457       0.39411945      -0.23093211
O        9.24780740       1.31537539      11.35122468  T       0.25154257       0.02811990      -0.84296331
O        5.97404178       2.55767588       7.80580126  T       0.48947739      -0.36106597       0.11124954
O        5.26888557       4.05385640       9.74871299  T      -0.31401756       0.45528234       0.81921469
O        7.38901621       2.45939713      10.03762986  T       0.70056613       0.04676340       0.00017624
O        6.74129253       0.18400158      11.32193377  T      -0.08146080       0.45952337      -0.64416481
O        7.49050906       4.81824267       8.89810400  T      -0.38083244      -0.19500286      -1.29263292
O        8.06947820       9.78595038       6.59198795  T      -0.57144068       0.55841686       0.51770203
O        4.10100919       7.04734362       6.82455370  T      -0.61660045       0.66230392       0.59128434
O        4.00622138       9.58319383      11.19413005  T       0.77188501       0.04239060      -0.73076776
O        3.05468055       8.31715152       8.84408097  T      -0.16057676      -0.45723191      -0.14331687
O        1.53450420       6.59231001       7.44149613  T       0.17196353      -0.31311491      -1.19613731
O        3.32713058       5.62710446       9.06176746  T      -0.52032120       0.75367756       0.38969966
O        0.14555217       6.43201840       9.54183088  T      -0.57827210      -1.13108575      -0.42615503
O        2.25753790       7.37089897      11.12973383  T       0.74972388       0.05127722       0.44622621
O        4.93556706       7.38158410      10.27018003  T      -0.04091312      -0.29401508       1.44267139
O        8.19650495       0.02533163       9.16527206  T       0.68596550       0.07219028       0.39668476
O        7.50956814       7.19744313      11.30944955  T      -0.31824281      -0.24990376      -0.63880190
O        6.20812216       5.51326455       6.87084413  T       0.30823465       0.21838469      -0.24245785
O        5.81182836       9.87012818       8.00107690  T      -0.04126641      -0.17000979      -0.49042116
O        8.88631087       6.08813796       7.16937168  T       0.39675228       0.18780566       0.61151668
O        7.22373005       7.67613193       8.18063241  T      -0.68805825      -0.14032072       0.18364784
O        3.55000000       4.18000000       1.53000000  F       0.00000000       0.00000000       0.00000000
O        1.14000000       4.89000000       1.35000000  F       0.00000000       0.00000000       0.00000000
O        9.29000000       1.31000000       1.44000000  F       0.00000000       0.00000000       0.00000000
O        6.84000000       0.20000000       1.30000000  F       0.00000000       0.00000000       0.00000000
O        3.95000000       9.60000000       1.25000000  F       0.00000000       0.00000000       0.00000000
O        2.28000000       7.42000000       1.08000000  F       0.00000000       0.00000000       0.00000000
O        7.52000000       7.21000000       1.37000000  F       0.00000000       0.00000000       0.00000000
Si       2.12070272       3.95680447      12.32915072  T      -0.01154441      -0.05737602       0.60558028
Si       2.91120333       3.63200888      15.04938324  T       0.14008997      -0.01098918      -0.80928390
Si       0.85651341       1.14743009      11.71381487  T      -0.96623541      -0.33128992      -0.97305773
Si       8.31686001       1.00632461      15.61014161  T       0.86731651       0.99387145       0.27983108
Si       5.49529475       2.04061323      14.43369856  T       1.93597659       1.15568903       0.36526805
Si       4.76014890       5.87571606      16.10273884  T      -0.14942037      -1.59212927       0.65229163
Si       0.02105455       9.14232591      13.88234585  T       0.10137558       0.35049827       0.24361115
Si       6.19141953       5.18791160      13.62644953  T      -0.03116015      -0.89005376      -0.94957093
Si       5.40992146       9.77016623      12.13436147  T      -0.96986424       1.13077858       1.74056627
Si       8.39504107       7.03318865      12.70757202  T      -0.08145091      -0.13589883      -0.69382279
Si       3.09373132       4.30728669      20.21525853  T       1.64728217      -0.02337705       0.24002196
Si       2.10185391       1.46402836      19.07413182  T      -0.26792875       0.10900023      -0.92479378
Si       0.48121181       2.67701348      16.91948418  T      -0.25663121       0.14910898      -1.51548919
Si       4.93790663       1.57059829      17.63360121  T       0.71572582      -0.53268300      -0.36091601
Si       5.95909645       3.74990173      19.68615432  T       0.01603484      -0.78688521      -0.19673032
Si       7.68432847       1.23631464      20.57162772  T       0.75358429       0.85713036      -1.42432723
Si       2.57223923       8.74858056      20.35998093  T      -0.27138839       0.24098165       0.33749022
Si       2.91191238       6.71570941      18.14165108  T       0.18825451       0.53700242       0.58395184
Si       1.09028718       6.14036531      21.33869016  T       0.42261890      -0.47665581      -1.13574750
Si       0.16324043       5.56094573      18.38760928  T      -0.94958621      -0.14153919       0.07996419
Si       6.11961502       9.22438392      22.46948644  T      -1.41338479      -0.38237837       0.39292518
Si       7.11726115       6.25740033      18.15212651  T      -0.63761867       0.33310519       0.32329082
Si       7.17410931       9.48170352      18.16975465  T       0.12253740      -0.58523030       0.05466895
Si       2.10000000       3.98000000       2.32000000  F       0.00000000       0.00000000       0.00000000
Si       2.92933629       3.63989438       5.04144559  T      -0.83615996      -0.39243843      -0.59342252
Si       0.89000000       1.15000000       1.77000000  F       0.00000000       0.00000000       0.00000000
Si       8.34170140       1.06864064       5.60178041  T       0.75161010       0.55652973       0.30865797
Si       5.48309652       1.98008695       4.43014107  T       1.68355693      -0.01554561      -0.31622592
Si       4.80213148       5.82897893       6.11598834  T       0.44161332       0.08679600       0.83481622
Si       0.05400868       9.11320067       3.94326702  T       0.62155848       0.20346896       1.19481969
Si       6.19248453       5.17330065       3.65317991  T      -0.16695681      -1.02789269      -1.26487526
Si       5.42000000       9.77000000       2.06000000  F       0.00000000       0.00000000       0.00000000
Si       8.42066712       7.03399944       2.75643120  T       0.73134248      -0.30258305       0.00807634
Si       3.71185161       4.27254215       9.92304976  T      -0.11791500      -0.22849015       0.49272420
Si       2.30574006       1.60633856       8.95987855  T      -0.78209526       0.34064095      -0.30714644
Si       0.47987931       2.82523097       6.94752863  T      -0.86024397      -0.03926308       0.63061873
Si       5.02152256       1.22209775       7.47237534  T       0.07553109       0.54611307       0.13242764
Si       6.56488864       3.46100767       9.04117207  T      -0.09471739       0.39724845       0.43649845
Si       7.95115561       0.98391102      10.48698132  T      -1.01617980      -1.10583959      -0.49033039
Si       3.54858728       8.23389015      10.42571501  T       0.27024557      -0.23420496       0.10260676
Si       2.97401528       6.90475834       8.03675168  T      -1.29842110      -0.23031474      -0.81577980
Si       0.92921228       6.44816799      11.00454384  T      -0.41537928      -0.43846186       0.85556015
Si       0.28609316       5.79516393       7.97493604  T       1.08662677      -0.20704994      -1.82377717
Si       5.90138413       7.05151322      11.57146480  T      -0.36246018      -0.02729437       1.43439775
Si       7.43090605       6.08620709       7.78580907  T      -0.13183267       0.35092012      -0.70735009
Si       7.36431015       9.29464693       8.02671694  T       0.85952934      -0.50531710       1.12254218
Si       7.93000000       1.02000000       0.50000000  F       0.00000000       0.00000000       0.00000000
Si       0.91000000       6.44000000       0.98000000  F       0.00000000       0.00000000       0.00000000
Si       5.91000000       7.08000000       1.49000000  F       0.00000000       0.00000000       0.00000000
C        4.97689326       5.01616353      24.69272675  T       0.81654281      -0.04185961     -13.19520223
F        5.79502574       6.05943986      24.69549183  T      -0.40812223       0.00621891     -20.81215851
F        5.80223146       3.93356565      24.69608000  T      -0.44239567       0.10373709     -20.78595623
153
Lattice="10.0 0.0 0.0 0.0 10.0 0.0 0.0 0.0 43.74" Properties=species:S:1:pos:R:3:move_mask:L:1:momenta:R:3 etch=trj_CF2_30eV_case1 idx=0 index=0 source=trj_CF2_30eV_case1/0000/OUTCAR converged=T time_fs=20.0 pbc="T T T"
O        2.21561580       4.60129397      13.85613653  T      -0.64725819       1.10606119       0.47408910
O        1.47725422       2.46608021      12.44979877  T      -0.34863233      -0.06613689      -1.68034558
O        3.86302962       2.64616526      14.23600171  T      -0.45669712      -1.12088203       0.67609796
O        3.79832124       4.57629976      16.10387794  T      -0.87040808      -0.59366635       0.29928642
O        1.67368636       2.88727733      15.86756894  T       1.11689814       0.20600725       0.30866172
O        5.06073046       1.67412537      16.07276085  T      -0.33149195       0.59990557      -1.03472899
O        5.14421943       0.87853617      13.26487811  T      -1.52528540       0.88873840       0.37363209
O        6.15551690       3.60724378      14.04914006  T      -0.06495345       0.12330872       0.06370783
O        7.08199271       1.39220533      14.68352420  T       0.06060749       0.97556686       0.75547073
O        9.03029755       2.28367512      16.34309899  T      -0.48609446       0.33884889       1.23732078
O        9.57409866       0.41691849      14.76303140  T       0.94121167      -0.25641250       0.21777089
O        0.91226619       9.74782718      12.63072040  T       0.40020954       0.03015610      -0.42243414
O        1.13383655       8.23675429      14.62510514  T      -0.75265970      -0.15953100       0.12648014
O        9.90249027       6.96837065      12.15528862  T       1.41982743      -0.57156576       1.15463375
O        5.22476046       6.17485217      14.58205170  T       1.14890767      -0.31078159       0.62214340
O        5.64547867       5.58469974      12.17827225  T       0.31143253      -0.63145600      -0.57783932
O        7.77028896       5.82132926      13.63914853  T      -0.43469272       0.34939440      -0.00475706
O        5.58993342       8.28053504      12.62549028  T      -0.06835405      -0.33510771      -0.08419460
O        8.60732888       8.37585731      13.63052678  T       0.53473273      -0.29654600      -0.16651137
O        2.42891475       5.18417346      21.48260632  T       0.06752272      -0.65321277       0.34934986
O        0.19777051       6.16918027      22.76834850  T       0.07314216      -0.34096911      -0.35957413
O        1.86309726       0.16135871      20.01940875  T       0.35000298       0.43512025       0.89144129
O        2.23276013       2.97041569      19.94455354  T       0.51896979      -1.16166161       0.16414554
O        3.44989081       1.27858704      18.21203801  T      -0.19064491       0.32002965       0.19676147
O        0.88150067       1.55680267      18.03685106  T      -0.77198091       0.89425104       0.31102295
O        0.40824692       4.09513416      17.76805544  T       0.02716000      -0.85927558       0.26617222
O        9.09418469       1.36252438      21.42613117  T       0.01534153       0.22275859       0.37971922
O        5.42118168       3.01063997      18.29378947  T       0.26713643       0.71153932      -0.91225102
O        4.65064267       3.94413393      20.62570197  T       0.42915607      -0.27531512       0.19344326
O        7.07343128       2.71188808      20.27899492  T      -0.27559300       0.42424552       0.91064597
O        6.42643876       0.47172961      21.44282511  T       0.19918264       0.66644756       0.51328337
O        6.61525801       5.22437559      19.38697710  T      -0.09440936       0.12777393      -0.15365892
O        7.93675840       9.80792791      16.70506729  T      -0.01354913      -0.08598970       0.55684612
O        3.83319582       7.00021421      16.86201002  T      -0.06341466      -0.45323581      -0.37128040
O        3.76560318       9.41035055      21.41835801  T       0.81887447      -0.27801687      -0.32307399
O        3.21655421       7.98258643      19.12182170  T       0.43093310       0.36023105       0.14435142
O        1.25278101       6.64373837      17.73355672  T       0.34013211       0.31206882      -0.20043240
O        3.20514736       5.27083576      18.87701944  T      -0.04476000       0.32251890      -0.26349523
O        0.31444522       5.56358914      20.06736418  T      -1.36778017       0.16788821      -0.57705583
O        1.51713189       7.71099903      21.09919775  T       0.09144228       1.05860953       0.74174610
O        4.79439167       8.46689654      21.96836064  T      -0.62972131      -0.64312275       0.52579979
O        8.02086681       0.20069890      19.36322737  T       0.30853540      -0.06548086      -0.11737831
O        6.91232351       8.82986505      23.72959466  T      -0.52843551      -0.22358183      -0.76817009
O        6.21830752       5.77786942      16.89856876  T      -0.33121304       0.50155492       0.00289250
O        5.75431018       0.26283518      18.20263731  T      -0.26623797      -0.65135066       0.29302157
O        8.68266176       6.01797977      17.91274486  T      -0.16406953       0.58591441       0.13339095
O        6.97171185       7.89395044      18.40304565  T      -0.20270552      -0.35944970      -0.20680653
O        2.15012011       4.62841401       3.82557759  T      -1.37624978       1.16455110       0.39753229
O        1.49535062       2.45312240       2.39877070  T       0.43374908       0.53665722      -2.41438762
O        3.89667141       2.69360197       4.17812159  T      -0.18416450      -0.32602457      -0.20233184
O        3.71177832       4.53757237       6.12676252  T       1.28906436       0.49528096       0.25643224
O        1.66267316       2.92670512       5.81005388  T      -0.38700325       0.22631352      -0.19401879
O        4.86761626       1.32330042       5.84805009  T       0.59593868      -0.10066232       0.58180711
O        5.21521149       0.86025094       3.20764655  T      -0.39880153       0.69016544      -0.45869393
O        6.17240033       3.61234854       4.05119223  T       0.19349181      -0.31174621       0.15751495
O        7.08122531       1.43225415       4.73072277  T      -0.21708893       1.65284091       1.12452458
O        9.09893945       2.38801711       6.33900367  T       0.52149544      -1.29041410       0.54498281
O        9.62048815       0.50489946       4.68172531  T       0.76937838       1.19528168      -0.54158813
O        0.94036498       9.76351765       2.55960540  T       0.85192431      -0.54758535      -0.89050033
O        1.11380785       8.23758592       4.59517985  T      -0.46117038      -0.70136943       0.04225195
O        9.87000000       6.98000000       2.02000000  F       0.00000000       0.00000000       0.00000000
O        5.23082800       6.10516908       4.58218641  T       1.08572198      -0.93263456       0.67412116
O        5.59000000       5.63000000       2.17000000  F       0.00000000       0.00000000       0.00000000
O        7.76449959       5.81930982       3.61129490  T      -0.46680931       0.10510415      -0.17665599
O        5.59960683       8.25503401       2.55743381  T      -0.13423402       0.27449116      -1.31864957
O        8.60244305       8.37975994       3.59254295  T       0.86423851       0.27861244      -0.33188018
O        3.48203216       4.16223979      11.50911793  T      -0.31747961      -0.23082446      -0.03320378
O        1.13235665       4.85794401      11.37298136  T      -0.23218345      -0.05470573       0.28205076
O        1.72912724       0.89562079      10.36509470  T       0.33788500      -0.16558676      -0.68356126
O        2.75753546       3.13235761       9.30430710  T      -0.77684104      -0.11420311      -0.45619737
O        3.57498280       1.01010319       8.21005953  T       1.13163492       0.34057925       0.31201596
O        1.01091504       1.61427159       7.95642393  T      -0.82621540      -0.32773330       0.31594548
O        0.43830369       4.17579681       7.87422050  T       0.10512348       0.41333569      -0.25542982
O        9.24968455       1.31551217      11.34617000  T       0.35708150       0.01593763      -0.80433190
O        5.97697864       2.55537199       7.80644129  T       0.46770035      -0.38755322       0.09862466
O        5.26692997       4.05666362       9.75384849  T      -0.31970095       0.45780120       0.85205761
O        7.39331072       2.45964124      10.03753647  T       0.69725690       0.03377303      -0.03126219
O        6.74114752       0.18705372      11.31769570  T       0.02944638       0.53252605      -0.73231729
O        7.48817033       4.81719796       8.88994290  T      -0.38073429      -0.14569193      -1.36442781
O        8.06587184       9.78934344       6.59540570  T      -0.60191399       0.54725012       0.59387235
O        4.09683666       7.05165903       6.82849878  T      -0.73858278       0.73967442       0.68980777
O        4.01100332       9.58363704      11.18966196  T       0.78562918       0.10255843      -0.72396038
O        3.05364811       8.31434786       8.84335619  T      -0.17564577      -0.45528334      -0.09166407
O        1.53567073       6.59057911       7.43361198  T       0.20671061      -0.25067307      -1.37264371
O        3.32383281       5.63185697       9.06410640  T      -0.55341877       0.79152590       0.37337529
O        0.14215866       6.42490096       9.53906167  T      -0.52527476      -1.18644120      -0.47353753
O        2.26251713       7.37145828      11.13240425  T       0.86846614       0.12869164       0.42373264
O        4.93565796       7.37944124      10.27933160  T       0.06947088      -0.40390615       1.53621228
O        8.20100080       0.02591984       9.16816492  T       0.77787895       0.11716470       0.54290273
O        7.50759469       7.19585405      11.30566911  T      -0.32288438      -0.26767860      -0.59111772
O        6.20999384       5.51464090       6.86929594  T       0.30147931       0.23002187      -0.26162248
O        5.81164463       9.86915945       7.99803196  T      -0.01685286      -0.14610474      -0.50061623
O        8.88932586       6.08936387       7.17284522  T       0.58282544       0.21215320       0.51880108
O        7.21946649       7.67515419       8.18179339  T      -0.70016689      -0.17792373       0.19459535
O        3.55000000       4.18000000       1.53000000  F       0.00000000       0.00000000       0.00000000
O        1.14000000       4.89000000       1.35000000  F       0.00000000       0.00000000       0.00000000
O        9.29000000       1.31000000       1.44000000  F       0.00000000       0.00000000       0.00000000
O        6.84000000       0.20000000       1.30000000  F       0.00000000       0.00000000       0.00000000
O        3.95000000       9.60000000       1.25000000  F       0.00000000       0.00000000       0.00000000
O        2.28000000       7.42000000       1.08000000  F       0.00000000       0.00000000       0.00000000
O        7.52000000       7.21000000       1.37000000  F       0.00000000       0.00000000       0.00000000
Si       2.12047460       3.95675994      12.33140169  T      -0.12001543       0.03212174       0.68129465
Si       2.91158355       3.63210691      15.04658990  T       0.07733347       0.06731328      -0.78769389
Si       0.85310859       1.14617293      11.71043432  T      -0.97855822      -0.38809296      -0.96176765
Si       8.31983893       1.00965590      15.61119913  T       0.83584752       0.90870085       0.32479441
Si       5.50202205       2.04464857      14.43504882  T       1.90787762       1.15102767       0.40636704
Si       4.75977274       5.87019037      16.10503764  T      -0.06648201      -1.56682126       0.66092317
Si       0.02132216       9.14377911      13.88308667  T       0.05275178       0.47986167       0.17708742
Si       6.19143820       5.18471019      13.62347456  T       0.04177489      -0.93840465      -0.75061064
Si       5.40636192       9.77449641      12.14039590  T      -1.06292369       1.34311329       1.70704666
Si       8.39475295       7.03271529      12.70511915  T      -0.08142945      -0.13497122      -0.70952496
Si       3.09956342       4.30729129      20.21622018  T       1.68388072       0.02328689       0.30797346
Si       2.10106140       1.46474466      19.07102180  T      -0.18641152       0.29961945      -0.85152699
Si       0.48029071       2.67772128      16.91438823  T      -0.26715870       0.25591033      -1.39658002
Si       4.94045759       1.56877897      17.63257915  T       0.74128337      -0.50689094      -0.22613470
Si       5.95912963       3.74710804      19.68519917  T       0.00384859      -0.80834430      -0.35040309
Si       7.68683249       1.23917580      20.56687027  T       0.67783033       0.77773463      -1.29319750
Si       2.57122950       8.74941689      20.36146039  T      -0.30454401       0.23837481       0.50787056
Si       2.91219139       6.71747625      18.14368776  T      -0.02810664       0.47421399       0.57841175
Si       1.09183691       6.13875963      21.33503149  T       0.46256723      -0.43994078      -0.95639590
Si       0.15999854       5.56050903      18.38788722  T      -0.90224763      -0.10903696       0.07599452
Si       6.11502974       9.22342361      22.47088408  T      -1.20870247      -0.16420402       0.40243515
Si       7.11492201       6.25852545      18.15339948  T      -0.69946153       0.30901997       0.40386543
Si       7.17459736       9.47980877      18.16959615  T       0.15643572      -0.49825718      -0.14463812
Si       2.10000000       3.98000000       2.32000000  F       0.00000000       0.00000000       0.00000000
Si       2.92611509       3.63855592       5.03921648  T      -1.00243139      -0.36927675      -0.67792753
Si       0.89000000       1.15000000       1.77000000  F       0.00000000       0.00000000       0.00000000
Si       8.34467801       1.07050878       5.60293901  T       0.94863557       0.51001720       0.35324048
Si       5.48893129       1.98010640       4.42899327  T       1.64960211       0.02703085      -0.33813109
Si       4.80365743       5.82895098       6.11880628  T       0.42903171      -0.09886357       0.77761414
Si       0.05595141       9.11435728       3.94725770  T       0.48964231       0.45877034       1.08566999
Si       6.19197331       5.16964952       3.64881010  T      -0.12515592      -1.05923887      -1.23154286
Si       5.42000000       9.77000000       2.06000000  F       0.00000000       0.00000000       0.00000000
Si       8.42321874       7.03291258       2.75637230  T       0.72643733      -0.31807649      -0.04105991
Si       3.71133660       4.27181625       9.92460820  T      -0.17993380      -0.18572667       0.39587942
Si       2.30270952       1.60766287       8.95899662  T      -0.94733447       0.41394366      -0.19892331
Si       0.47730931       2.82502275       6.94992689  T      -0.60615594      -0.07906261       0.74123363
Si       5.02191872       1.22392016       7.47275887  T       0.15272645       0.49470806       0.08753677
Si       6.56466297       3.46234806       9.04283775  T      -0.03542842       0.36806531       0.51604899
Si       7.94722610       0.98003647      10.48522373  T      -1.22731011      -1.10627584      -0.51287660
Si       3.54927851       8.23298400      10.42601818  T       0.12518501      -0.28400333       0.06965700
Si       2.96977544       6.90388838       8.03400232  T      -1.12442999      -0.26621665      -0.75430803
Si       0.92759160       6.44646500      11.00750770  T      -0.50790661      -0.53410126       0.83550933
Si       0.28957173       5.79433078       7.96889813  T       0.90169583      -0.26819576      -1.62627685
Si       5.90007584       7.05159144      11.57633899  T      -0.38495309       0.07092838       1.35141502
Si       7.43025707       6.08737510       7.78355984  T      -0.23751682       0.31701563      -0.57883284
Si       7.36710938       9.29291396       8.03031235  T       0.73878947      -0.48411442       0.93325110
Si       7.93000000       1.02000000       0.50000000  F       0.00000000       0.00000000       0.00000000
Si       0.91000000       6.44000000       0.98000000  F       0.00000000       0.00000000       0.00000000
Si       5.91000000       7.08000000       1.49000000  F       0.00000000       0.00000000       0.00000000
C        4.98385441       5.01566107      24.58480098  T       0.88003843      -0.08119553     -13.19880962
F        5.79285631       6.05938396      24.58789055  T      -0.42812700      -0.02613713     -20.81078954
F        5.79980605       3.93429557      24.58862037  T      -0.49294302       0.17691748     -20.78231238
153
Lattice="10.0 0.0 0.0 0.0 10.0 0.0 0.0 0.0 43.74" Properties=species:S:1:pos:R:3:move_mask:L:1:momenta:R:3 etch=trj_CF2_30eV_case1 idx=0 index=0 source=trj_CF2_30eV_case1/0000/OUTCAR converged=T time_fs=21.0 pbc="T T T"
O        2.21172647       4.60783089      13.85906162  T      -0.61911028       1.02159863       0.47759607
O        1.47499530       2.46550616      12.43941995  T      -0.38626648      -0.11910475      -1.69887105
O        3.86028096       2.63922597      14.24009976  T      -0.43881462      -1.13764660       0.65773460
O        3.79274091       4.57231008      16.10561542  T      -0.94515574      -0.70394061       0.26694159
O        1.68084279       2.88860351      15.86918494  T       1.21063024       0.22461895       0.21908043
O        5.05875503       1.67786441      16.06600661  T      -0.31203442       0.61696147      -1.15816195
O        5.13485376       0.88405481      13.26724134  T      -1.52364285       0.90819516       0.39573234
O        6.15510950       3.60817622      14.04943523  T      -0.06778360       0.17941409       0.03239589
O        7.08245315       1.39826269      14.68817592  T       0.09156756       0.99636749       0.75961686
O        9.02722650       2.28592241      16.35073040  T      -0.51550528       0.39223031       1.24654344
O        9.57997767       0.41537388      14.76433713  T       0.97086359      -0.24346684       0.21030717
O        0.91461288       9.74821915      12.62805967  T       0.36318873       0.09668502      -0.44279401
O        1.12949072       8.23546154      14.62614754  T      -0.66226991      -0.26213616       0.21341224
O        9.91142781       6.96470938      12.16229111  T       1.48632573      -0.61989315       1.12806572
O        5.23192090       6.17276451      14.58585256  T       1.18259905      -0.37006634       0.61561857
O        5.64719342       5.58076292      12.17438247  T       0.24732211      -0.65125829      -0.68755668
O        7.76749295       5.82346529      13.63903178  T      -0.47517430       0.34638444      -0.03376034
O        5.58960136       8.27791883      12.62535365  T      -0.04016595      -0.51118030       0.04097165
O        8.61043723       8.37403622      13.62945525  T       0.47724023      -0.29621252      -0.18275203
O        2.42940129       5.18007782      21.48455564  T       0.09043007      -0.68025326       0.28448032
O        0.19839996       6.16703633      22.76581681  T       0.13200749      -0.35742054      -0.46548908
O        1.86522505       0.16407530      20.02490816  T       0.34301002       0.45077702       0.89841737
O        2.23589137       2.96268411      19.94531104  T       0.50334419      -1.35113338       0.08394919
O        3.44872137       1.28054251      18.21320604  T      -0.18689861       0.31680597       0.18155632
O        0.87661764       1.56224319      18.03873761  T      -0.81768034       0.87678674       0.30339469
O        0.40833140       4.08980408      17.76968888  T      -0.00033471      -0.87253465       0.26694752
O        9.09423651       1.36393146      21.42840531  T       0.00111036       0.23563224       0.36051568
O        5.42294286       3.01497408      18.28828857  T       0.30647789       0.69863851      -0.87949560
O        4.65319253       3.94246181      20.62702787  T       0.40184856      -0.26932921       0.23848718
O        7.07184277       2.71449881      20.28460955  T      -0.24149751       0.42582646       0.91754678
O        6.42787274       0.47570117      21.44607086  T       0.26773139       0.62621029       0.54387784
O        6.61473611       5.22529242      19.38595613  T      -0.07635546       0.16925255      -0.17808222
O        7.93653520       9.80741234      16.70878039  T      -0.05805672      -0.08044233       0.64991644
O        3.83295336       6.99743560      16.85958950  T      -0.01664909      -0.45192413      -0.41555464
O        3.77061672       9.40857862      21.41627403  T       0.81322991      -0.29873936      -0.35596166
O        3.21930544       7.98476934      19.12259208  T       0.46457172       0.35077453       0.10710450
O        1.25518374       6.64557429      17.73260617  T       0.44038089       0.28457834      -0.10839658
O        3.20489929       5.27290776      18.87549034  T      -0.03566683       0.35021301      -0.23211262
O        0.30570786       5.56453519      20.06322387  T      -1.47534709       0.14168219      -0.76687249
O        1.51782690       7.71762370      21.10370665  T       0.13334758       1.09461290       0.72754080
O        4.78989087       8.46259686      21.97141657  T      -0.83449690      -0.75698043       0.47020444
O        8.02289687       0.20037759      19.36258218  T       0.35211856      -0.03936261      -0.09343209
O        6.90896340       8.82843767      23.72475055  T      -0.56411855      -0.24230114      -0.80631182
O        6.21605767       5.78094006      16.89847248  T      -0.40018220       0.49797673      -0.03288632
O        5.75261203       0.25883916      18.20442086  T      -0.28707153      -0.64939059       0.28743195
O        8.68178970       6.02157417      17.91359575  T      -0.12058603       0.58467005       0.14333439
O        6.97040316       7.89149400      18.40185524  T      -0.22370886      -0.43822719      -0.18053998
O        2.14176764       4.63516802       3.82810139  T      -1.34355895       1.03319460       0.42297020
O        1.49814009       2.45650755       2.38378091  T       0.47455596       0.56455712      -2.46741468
O        3.89549940       2.69162710       4.17682068  T      -0.19823827      -0.31643675      -0.22068934
O        3.72003871       4.54095896       6.12846313  T       1.39658543       0.60231824       0.29381202
O        1.66039110       2.92821194       5.80877168  T      -0.35714237       0.26416435      -0.22252659
O        4.87128908       1.32268217       5.85190083  T       0.60028113      -0.09956564       0.66800858
O        5.21287046       0.86455047       3.20483443  T      -0.36291060       0.70938699      -0.45748017
O        6.17360460       3.61038657       4.05206802  T       0.19857179      -0.32707544       0.12686456
O        7.07989129       1.44254845       4.73756447  T      -0.21337634       1.69817488       1.10481838
O        9.10139010       2.37983424       6.34209304  T       0.27693853      -1.37289046       0.46194291
O        9.62504563       0.51229305       4.67832539  T       0.71438130       1.21242892      -0.56570078
O        0.94561764       9.76011149       2.55414233  T       0.85874632      -0.56104970      -0.88837169
O        1.11157350       8.23264415       4.59587977  T      -0.26729898      -0.90762772       0.18537961
O        9.87000000       6.98000000       2.02000000  F       0.00000000       0.00000000       0.00000000
O        5.23755607       6.09945029       4.58628854  T       1.10550389      -0.92933953       0.66077249
O        5.59000000       5.63000000       2.17000000  F       0.00000000       0.00000000       0.00000000
O        7.76153442       5.81983946       3.61021200  T      -0.49786492       0.06777794      -0.17651694
O        5.59877053       8.25638781       2.54952119  T      -0.13839957       0.16573392      -1.25633658
O        8.60772615       8.38168794       3.59059233  T       0.85522443       0.34843649      -0.30390055
O        3.48032869       4.16080603      11.50908718  T      -0.23779636      -0.23632100       0.02411053
O        1.13089059       4.85772014      11.37474127  T      -0.24485242      -0.01908294       0.29147631
O        1.73136635       0.89462610      10.36053367  T       0.39005827      -0.15897232      -0.79963307
O        2.75269257       3.13158721       9.30144427  T      -0.79879837      -0.13317960      -0.47521972
O        3.58225241       1.01213855       8.21184695  T       1.23000884       0.32403133       0.27303875
O        1.00580024       1.61238141       7.95834300  T      -0.83938465      -0.28765395       0.30862956
O        0.43896674       4.17835411       7.87256791  T       0.11104918       0.41657795      -0.28356400
O        9.25215831       1.31556577      11.34133890  T       0.44507267       0.00098874      -0.77051534
O        5.97979061       2.55293733       7.80702738  T       0.44897235      -0.40349182       0.09385402
O        5.26499390       4.05946365       9.75915817  T      -0.30771525       0.45295332       0.87586929
O        7.39756659       2.45982271      10.03723974  T       0.68804502       0.02643496      -0.06595044
O        6.74160112       0.19051614      11.31298652  T       0.11278286       0.59282953      -0.79706322
O        7.48583686       4.81644832       8.88136627  T      -0.37912994      -0.09918088      -1.42774855
O        8.06210284       9.79267429       6.59926007  T      -0.62425058       0.53823705       0.65957037
O        4.09198581       7.05638465       6.83297903  T      -0.83674657       0.79545895       0.76496950
O        4.01586586       9.58445751      11.18524769  T       0.79813384       0.16498927      -0.71338130
O        3.05252487       8.31156926       8.84296624  T      -0.19014619      -0.44905237      -0.03437871
O        1.53702657       6.58923006       7.42463984  T       0.23321532      -0.18921855      -1.54987555
O        3.32034075       5.63679258       9.06636467  T      -0.58356371       0.81316868       0.36354248
O        0.13912113       6.41746085       9.53604185  T      -0.46244225      -1.23611041      -0.50759322
O        2.26815936       7.37245408      11.13493825  T       0.96506385       0.19304188       0.40193814
O        4.93640452       7.37662887      10.28901699  T       0.17173573      -0.51151425       1.61599190
O        8.20604683       0.02674373       9.17190417  T       0.86469713       0.14830807       0.67129730
O        7.50562188       7.19415728      11.30220650  T      -0.31790510      -0.28492923      -0.53543207
O        6.21182444       5.51608957       6.86763440  T       0.29491648       0.24194572      -0.27934324
O        5.81163906       9.86832780       7.99493896  T       0.01673808      -0.12549230      -0.50602117
O        8.89343324       6.09074961       7.17573160  T       0.75109508       0.23993367       0.42060088
O        7.21513938       7.67395097       8.18302235  T      -0.70875052      -0.21355210       0.20579161
O        3.55000000       4.18000000       1.53000000  F       0.00000000       0.00000000       0.00000000
O        1.14000000       4.89000000       1.35000000  F       0.00000000       0.00000000       0.00000000
O        9.29000000       1.31000000       1.44000000  F       0.00000000       0.00000000       0.00000000
O        6.84000000       0.20000000       1.30000000  F       0.00000000       0.00000000       0.00000000
O        3.95000000       9.60000000       1.25000000  F       0.00000000       0.00000000       0.00000000
O        2.28000000       7.42000000       1.08000000  F       0.00000000       0.00000000       0.00000000
O        7.52000000       7.21000000       1.37000000  F       0.00000000       0.00000000       0.00000000
Si       2.11985785       3.95702917      12.33391352  T      -0.23338678       0.12162770       0.75441242
Si       2.91174537       3.63248020      15.04387460  T       0.01557113       0.14604187      -0.76494556
Si       0.84968198       1.14471280      11.70707644  T      -0.97848895      -0.44726099      -0.96041363
Si       8.32270570       1.01266809      15.61241296  T       0.80342493       0.81177170       0.36922950
Si       5.50862247       2.04866025      14.43653772  T       1.86346710       1.14235119       0.44437894
Si       4.75967743       5.86476000      16.10735390  T       0.01058532      -1.53801422       0.66217018
Si       0.02143127       9.14567660      13.88356806  T       0.01118594       0.60380698       0.09548492
Si       6.19171022       5.18136203      13.62120115  T       0.11331932      -0.97345829      -0.54970151
Si       5.40250306       9.77954352      12.14628465  T      -1.14071812       1.53923805       1.65746244
Si       8.39448251       7.03224316      12.70260482  T      -0.07133250      -0.13529367      -0.72894427
Si       3.10548657       4.30743255      20.21740060  T       1.69906153       0.05440630       0.36479295
Si       2.10054189       1.46611679      19.06818720  T      -0.11226272       0.48347047      -0.76749406
Si       0.47936128       2.67880458      16.90972504  T      -0.26103952       0.36363717      -1.26859896
Si       4.94308144       1.56705712      17.63200150  T       0.75728912      -0.47696564      -0.10767978
Si       5.95912881       3.74426119      19.68369926  T      -0.00336521      -0.81718279      -0.50772677
Si       7.68906782       1.24174823      20.56259823  T       0.60019269       0.69225892      -1.14706854
Si       2.57011843       8.75025484      20.36352745  T      -0.32904161       0.24203696       0.67275379
Si       2.91172152       6.71903271      18.14568313  T      -0.23922122       0.41706407       0.56014787
Si       1.09351536       6.13729613      21.33199687  T       0.49569924      -0.39573413      -0.78005164
Si       0.15694038       5.56017771      18.38812302  T      -0.84471745      -0.08137679       0.05572759
Si       6.11115505       9.22324754      22.47227712  T      -1.00868913       0.06516090       0.38968954
Si       7.11237238       6.25955443      18.15494571  T      -0.75769193       0.27808472       0.47912002
Si       7.17520262       9.47821671      18.16874921  T       0.18945680      -0.41265484      -0.33818169
Si       2.10000000       3.98000000       2.32000000  F       0.00000000       0.00000000       0.00000000
Si       2.92234632       3.63733296       5.03672334  T      -1.14860785      -0.32633504      -0.74432993
Si       0.89000000       1.15000000       1.77000000  F       0.00000000       0.00000000       0.00000000
Si       8.34832261       1.07219840       5.60424687  T       1.13244117       0.45453006       0.39376266
Si       5.49461567       1.98027789       4.42778791  T       1.59756769       0.07130236      -0.34901797
Si       4.80512091       5.82831324       6.12143469  T       0.40584647      -0.26091377       0.72674353
Si       0.05743995       9.11641034       3.95085467  T       0.36343741       0.71459094       0.97048771
Si       6.19160989       5.16589556       3.64457907  T      -0.08260474      -1.08668041      -1.18562583
Si       5.42000000       9.77000000       2.06000000  F       0.00000000       0.00000000       0.00000000
Si       8.42574044       7.03177958       2.75614869  T       0.71413751      -0.32892799      -0.08590638
Si       3.71057398       4.27124782       9.92580527  T      -0.25929204      -0.13855660       0.28657094
Si       2.29913706       1.60921699       8.95847529  T      -1.09105246       0.47164658      -0.10146702
Si       0.47565294       2.82468180       6.95271380  T      -0.33958332      -0.11534239       0.85207157
Si       5.02260080       1.22555121       7.47299208  T       0.23899162       0.43689731       0.04669283
Si       6.56463365       3.46357562       9.04478127  T       0.01731719       0.33279499       0.59509596
Si       7.94259469       0.97619414      10.48340523  T      -1.41644547      -1.08706213      -0.52495438
Si       3.54946646       8.23190363      10.42619640  T      -0.01665809      -0.33373047       0.03135739
Si       2.96615670       6.90290183       8.03148703  T      -0.94424827      -0.29694749      -0.68211943
Si       0.92568151       6.44444053      11.01036599  T      -0.58032569      -0.62192410       0.79515266
Si       0.29239946       5.79329683       7.96357354  T       0.71580897      -0.32119253      -1.41663816
Si       5.89869628       7.05200082      11.58091112  T      -0.40296375       0.16134114       1.26222955
Si       7.42925783       6.08842517       7.78175813  T      -0.33114355       0.28362941      -0.45214625
Si       7.36946599       9.29127004       8.03324705  T       0.60708985      -0.45426053       0.74580223
Si       7.93000000       1.02000000       0.50000000  F       0.00000000       0.00000000       0.00000000
Si       0.91000000       6.44000000       0.98000000  F       0.00000000       0.00000000       0.00000000
Si       5.91000000       7.08000000       1.49000000  F       0.00000000       0.00000000       0.00000000
C        4.99120434       5.01483443      24.47684344  T       0.91110357      -0.12092925     -13.20298859
F        5.79062461       6.05918550      24.48029755  T      -0.43209559      -0.04868968     -20.80898901
F        5.79716077       3.93537819      24.48117941  T      -0.52704043       0.23964817     -20.77871325
153
Lattice="10.0 0.0 0.0 0.0 10.0 0.0 0.0 0.0 43.74" Properties=species:S:1:pos:R:3:move_mask:L:1:momenta:R:3 etch=trj_CF2_30eV_case1 idx=0 index=0 source=trj_CF2_30eV_case1/0000/OUTCAR converged=T time_fs=22.0 pbc="T T T"
O        2.20801912       4.61382153      13.86198883  T      -0.58812189       0.92838825       0.47476939
O        1.47252186       2.46463753      12.42895600  T      -0.41835370      -0.16176229      -1.70807199
O        3.85763902       2.63221743      14.24406702  T      -0.42214741      -1.14321656       0.63359005
O        3.78674126       4.56768033      16.10715928  T      -1.00651397      -0.80153706       0.23643121
O        1.68850994       2.89002011      15.87027563  T       1.28254889       0.23524213       0.13811409
O        5.05689849       1.68168878      16.05861909  T      -0.29281157       0.62759258      -1.24026700
O        5.12553094       0.88967998      13.26973246  T      -1.51130255       0.92346186       0.41528034
O        6.15468426       3.60943391      14.04953823  T      -0.07077552       0.22878924       0.00127937
O        7.08313943       1.40442646      14.69284912  T       0.13415421       1.01019063       0.76244622
O        9.02395562       2.28848026      16.35838369  T      -0.55112914       0.43983396       1.24443188
O        9.58598850       0.41396284      14.76564240  T       0.98411572      -0.21287796       0.21772463
O        0.91671566       9.74900466      12.62529916  T       0.32086961       0.15815039      -0.45488729
O        1.12570895       8.23353242      14.62772689  T      -0.56953623      -0.36633380       0.30098258
O        9.92068571       6.96077219      12.16915756  T       1.52402202      -0.66130435       1.11046787
O        5.23927041       6.17030058      14.58960756  T       1.21037438      -0.43325523       0.60731727
O        5.64851934       5.57669969      12.16985137  T       0.18517175      -0.67269495      -0.78597501
O        7.76446504       5.82558241      13.63872925  T      -0.51002580       0.34329423      -0.06522803
O        5.58943556       8.27432677      12.62600530  T      -0.01439822      -0.65160413       0.17236324
O        8.61318439       8.37222552      13.62828091  T       0.41735620      -0.29304288      -0.19994772
O        2.43001908       5.17582817      21.48608828  T       0.11017019      -0.70331651       0.21376898
O        0.19939161       6.16479155      22.76263052  T       0.19095698      -0.37382035      -0.57253745
O        1.86730811       0.16690351      20.03042386  T       0.33548776       0.47144776       0.89671007
O        2.23896540       2.95388825      19.94559978  T       0.50052534      -1.50765401       0.01177242
O        3.44763080       1.28247550      18.21424498  T      -0.16497830       0.31272840       0.15470633
O        0.87147201       1.56755616      18.04057576  T      -0.85726020       0.85271127       0.29538363
O        0.40823616       4.08446646      17.77134356  T      -0.03129110      -0.86170442       0.27304584
O        9.09419411       1.36541807      21.43055246  T      -0.01531306       0.24867344       0.33843023
O        5.42494357       3.01920136      18.28299114  T       0.34509352       0.67673535      -0.84615273
O        4.65558247       3.94082696      20.62862943  T       0.37737443      -0.26326119       0.28303774
O        7.07046897       2.71711303      20.29025325  T      -0.20580155       0.42541245       0.92009276
O        6.42972338       0.47940893      21.44950108  T       0.33477803       0.58075747       0.57323044
O        6.61431209       5.22643586      19.38479969  T      -0.06264534       0.20135589      -0.19765705
O        7.93605786       9.80695587      16.71301685  T      -0.09613411      -0.06671127       0.72691996
O        3.83297888       6.99466449      16.85692576  T       0.02361311      -0.45086139      -0.45025710
O        3.77557794       9.40668744      21.41398556  T       0.80184657      -0.31677673      -0.38965476
O        3.22225021       7.98689332      19.12314340  T       0.49376700       0.34114566       0.07326147
O        1.25816455       6.64721866      17.73223265  T       0.52814930       0.24975509      -0.01274269
O        3.20471333       5.27511245      18.87419488  T      -0.02452878       0.36561550      -0.18742290
O        0.29636452       5.56534479      20.05800329  T      -1.56455986       0.12374438      -0.92774551
O        1.51875182       7.72438992      21.10813687  T       0.16617160       1.10458561       0.71622093
O        4.78417154       8.45761037      21.97414239  T      -1.02537286      -0.86616037       0.41872552
O        8.02518273       0.20021313      19.36207264  T       0.39164568      -0.01450380      -0.07336488
O        6.90541827       8.82688016      23.71973122  T      -0.58854087      -0.26603902      -0.82501081
O        6.21341110       5.78397649      16.89818069  T      -0.46005368       0.49041143      -0.06046973
O        5.75078448       0.25487110      18.20616116  T      -0.30827203      -0.64229230       0.27894240
O        8.68117340       6.02515619      17.91449976  T      -0.08109007       0.58194990       0.15061235
O        6.96896403       7.88859860      18.40083286  T      -0.24516599      -0.50180469      -0.15214424
O        2.13363255       4.64107752       3.83075459  T      -1.30556106       0.88973613       0.43970593
O        1.50117300       2.46003746       2.36848506  T       0.51288987       0.58349132      -2.51414880
O        3.89423051       2.68972557       4.17542019  T      -0.21580712      -0.30207539      -0.23463874
O        3.72887116       4.54490826       6.13033161  T       1.47493856       0.67809829       0.31108526
O        1.65827895       2.92994423       5.80733401  T      -0.33186138       0.29961997      -0.24449541
O        4.87498495       1.32208992       5.85620325  T       0.60345409      -0.09218225       0.72849692
O        5.21076414       0.86895067       3.20202784  T      -0.32239102       0.72291936      -0.45690568
O        6.17483608       3.60833567       4.05274067  T       0.20232998      -0.34067216       0.09134600
O        7.07864915       1.45308033       4.74429662  T      -0.18681917       1.73000565       1.08906873
O        9.10235178       2.37118775       6.34468680  T       0.03851004      -1.44048103       0.38456973
O        9.62925314       0.51977812       4.67478120  T       0.65573739       1.22492903      -0.58866762
O        0.95090520       9.75663766       2.54870579  T       0.86324993      -0.56971464      -0.88164379
O        1.11051068       8.22645703       4.59744688  T      -0.08119803      -1.10556771       0.32369258
O        9.87000000       6.98000000       2.02000000  F       0.00000000       0.00000000       0.00000000
O        5.24439756       6.09376729       4.59028610  T       1.12263239      -0.92098952       0.64012786
O        5.59000000       5.63000000       2.17000000  F       0.00000000       0.00000000       0.00000000
O        7.75840027       5.82014675       3.60912283  T      -0.52161543       0.03288433      -0.17877062
O        5.59790491       8.25706412       2.54203325  T      -0.14386183       0.05439924      -1.18038754
O        8.61292923       8.38402679       3.58880715  T       0.83827476       0.41220370      -0.27808407
O        3.47910639       4.15933694      11.50942234  T      -0.16114541      -0.24235187       0.08576625
O        1.12935576       4.85769996      11.37656275  T      -0.25456220       0.01147528       0.30209978
O        1.73390053       0.89366261      10.35530502  T       0.43375220      -0.15556075      -0.90054738
O        2.74774680       3.13075953       9.29848366  T      -0.81040706      -0.13277057      -0.48808061
O        3.59001668       1.01409898       8.21344239  T       1.29220742       0.31630176       0.24975195
O        1.00061404       1.61074216       7.96020796  T      -0.84946488      -0.24616681       0.29836544
O        0.43966912       4.18087887       7.87073232  T       0.11793203       0.40257352      -0.31495106
O        9.25510842       1.31551881      11.33669601  T       0.51161216      -0.01682334      -0.74330706
O        5.98249910       2.55043912       7.80761025  T       0.43412167      -0.40816266       0.09767698
O        5.26318383       4.06221176       9.76458553  T      -0.27891898       0.44095579       0.89037781
O        7.40174881       2.45997723      10.03672165  T       0.67336114       0.02501944      -0.10324079
O        6.74247275       0.19430571      11.30795841  T       0.16507613       0.63884379      -0.83580382
O        7.48351775       4.81597169       8.87243007  T      -0.37605911      -0.05705580      -1.48132861
O        8.05822383       9.79595732       6.60348114  T      -0.63760665       0.53171569       0.71302560
O        4.08661524       7.06138152       6.83784149  T      -0.90727916       0.82781840       0.81387843
O        4.02080109       9.58566419      11.18090791  T       0.80926286       0.22804914      -0.69985792
O        3.05131445       8.30884216       8.84294326  T      -0.20404298      -0.43851425       0.02769836
O        1.53851489       6.58824895       7.41458654  T       0.24957605      -0.13125647      -1.72413233
O        3.31667317       5.64180981       9.06858377  T      -0.61057485       0.81806885       0.36067161
O        0.13649771       6.40973430       9.53285619  T      -0.39052565      -1.27967749      -0.52742115
O        2.27431908       7.37379982      11.13734262  T       1.03658037       0.24238214       0.38165976
O        4.93774166       7.37317069      10.29914229  T       0.26094547      -0.61370805       1.67893622
O        8.21160411       0.02770829       9.17636331  T       0.94402017       0.16246785       0.77651594
O        7.50371060       7.19235695      11.29910800  T      -0.30277432      -0.30135350      -0.47270006
O        6.21361609       5.51761238       6.86586899  T       0.28883518       0.25417824      -0.29542887
O        5.81186703       9.86761096       7.99182812  T       0.05910983      -0.10880486      -0.50639403
O        8.89849996       6.09231727       7.17800268  T       0.89403527       0.27147094       0.31866156
O        7.21077051       7.67253796       8.18432078  T      -0.71376131      -0.24605337       0.21722038
O        3.55000000       4.18000000       1.53000000  F       0.00000000       0.00000000       0.00000000
O        1.14000000       4.89000000       1.35000000  F       0.00000000       0.00000000       0.00000000
O        9.29000000       1.31000000       1.44000000  F       0.00000000       0.00000000       0.00000000
O        6.84000000       0.20000000       1.30000000  F       0.00000000       0.00000000       0.00000000
O        3.95000000       9.60000000       1.25000000  F       0.00000000       0.00000000       0.00000000
O        2.28000000       7.42000000       1.08000000  F       0.00000000       0.00000000       0.00000000
O        7.52000000       7.21000000       1.37000000  F       0.00000000       0.00000000       0.00000000
Si       2.11883909       3.95760833      12.33667394  T      -0.34947926       0.20894956       0.82310048
Si       2.91169564       3.63312679      15.04123870  T      -0.04329644       0.22324030      -0.74258535
Si       0.84627868       1.14304245      11.70370386  T      -0.96507812      -0.50816991      -0.97037315
Si       8.32545913       1.01532367      15.61378149  T       0.77124325       0.70519754       0.41331755
Si       5.51503953       2.05263603      14.43815290  T       1.80312825       1.13068583       0.47841778
Si       4.75983705       5.85943364      16.10966092  T       0.07876251      -1.50769215       0.65556738
Si       0.02141064       9.14799252      13.88373972  T      -0.02103790       0.71842463       0.00030667
Si       6.19222715       5.17791831      13.61962402  T       0.18146916      -0.99257280      -0.35369980
Si       5.39840070       9.78523746      12.15197353  T      -1.20200594       1.71173591       1.59298672
Si       8.39426481       7.03176703      12.70001645  T      -0.05134708      -0.13734213      -0.75177423
Si       3.11142373       4.30765329      20.21875809  T       1.69178374       0.06857579       0.40900245
Si       2.10026577       1.46811594      19.06566357  T      -0.04756186       0.65763640      -0.67399720
Si       0.47848451       2.68026469      16.90552104  T      -0.23687522       0.47115982      -1.13454468
Si       4.94574385       1.56544699      17.63180366  T       0.76327651      -0.44303835      -0.00953120
Si       5.95911168       3.74140611      19.68164679  T      -0.00547656      -0.81300999      -0.66582581
Si       7.69103023       1.24401287      20.55886104  T       0.52200116       0.60197051      -0.98769264
Si       2.56893886       8.75111745      20.36615607  T      -0.34349159       0.25256827       0.82830360
Si       2.91052808       6.72040164      18.14759133  T      -0.44115764       0.36724980       0.52850931
Si       1.09529403       6.13599744      21.32956548  T       0.51944585      -0.34607116      -0.61242468
Si       0.15409967       5.55993411      18.38825866  T      -0.77812580      -0.05890437       0.01866577
Si       6.10795973       9.22388668      22.47358234  T      -0.82166999       0.30113136       0.35176749
Si       7.10962766       6.26046299      18.15674270  T      -0.81072396       0.24015147       0.54687669
Si       7.17592095       9.47691792      18.16724167  T       0.22095378      -0.33101341      -0.52159033
Si       2.10000000       3.98000000       2.32000000  F       0.00000000       0.00000000       0.00000000
Si       2.91810599       3.63629463       5.03402958  T      -1.27160484      -0.26383614      -0.79278064
Si       0.89000000       1.15000000       1.77000000  F       0.00000000       0.00000000       0.00000000
Si       8.35257854       1.07367884       5.60568759  T       1.29717671       0.39045760       0.42899937
Si       5.50008675       1.98060651       4.42656439  T       1.52772116       0.11680823      -0.34849404
Si       4.80648497       5.82715683       6.12389805  T       0.37232586      -0.39472335       0.68335501
Si       0.05850908       9.11934757       3.95404431  T       0.25132060       0.96287359       0.85351214
Si       6.19139540       5.16205260       3.64052970  T      -0.04013610      -1.11011236      -1.12780833
Si       5.42000000       9.77000000       2.06000000  F       0.00000000       0.00000000       0.00000000
Si       8.42820553       7.03061699       2.75577714  T       0.69398389      -0.33498420      -0.12550072
Si       3.70950562       4.27085115       9.92660231  T      -0.35438435      -0.08764432       0.16772397
Si       2.29510597       1.61094315       8.95827243  T      -1.20890660       0.51212092      -0.01719170
Si       0.47493690       2.82421853       6.95588252  T      -0.07028714      -0.14925794       0.95870582
Si       5.02360005       1.22697051       7.47309114  T       0.33402150       0.37384856       0.01102317
Si       6.56477574       3.46466984       9.04699822  T       0.06242096       0.29193621       0.67212543
Si       7.93734806       0.97245580      10.48156392  T      -1.57820956      -1.04653944      -0.52587116
Si       3.54917067       8.23065032      10.42623303  T      -0.15056644      -0.38275331      -0.01104887
Si       2.96317130       6.90181698       8.02924141  T      -0.76329203      -0.32243486      -0.60033173
Si       0.92355684       6.44212506      11.01304765  T      -0.63027716      -0.70024885       0.73457921
Si       0.29458557       5.79209669       7.95899759  T       0.53609267      -0.36264795      -1.19893556
Si       5.89726363       7.05270725      11.58516486  T      -0.41501027       0.24009487       1.16995390
Si       7.42795924       6.08936052       7.78039122  T      -0.40787906       0.25155828      -0.33081620
Si       7.37134786       9.28974646       8.03553717  T       0.46797660      -0.41524485       0.56560094
Si       7.93000000       1.02000000       0.50000000  F       0.00000000       0.00000000       0.00000000
Si       0.91000000       6.44000000       0.98000000  F       0.00000000       0.00000000       0.00000000
Si       5.91000000       7.08000000       1.49000000  F       0.00000000       0.00000000       0.00000000
C        4.99866796       5.01368559      24.36884872  T       0.90756912      -0.15967286     -13.20793877
F        5.78841480       6.05889693      24.37271544  T      -0.41962022      -0.06110112     -20.80641058
F        5.79438583       3.93675239      24.37375726  T      -0.54279960       0.28922267     -20.77501453
153
Lattice="10.0 0.0 0.0 0.0 10.0 0.0 0.0 0.0 43.74" Properties=species:S:1:pos:R:3:move_mask:L:1:momenta:R:3 etch=trj_CF2_30eV_case1 idx=0 index=0 source=trj_CF2_30eV_case1/0000/OUTCAR converged=T time_fs=23.0 pbc="T T T"
O        2.20450878       4.61921685      13.86487929  T      -0.55507732       0.82796701       0.46565057
O        1.46987034       2.46354265      12.41846413  T      -0.44416193      -0.19256306      -1.70798954
O        3.85509291       2.62521193      14.24786970  T      -0.40779167      -1.13645639       0.60423625
O        3.78041211       4.56249827      16.10852431  T      -1.05208601      -0.88332545       0.20889646
O        1.69654285       2.89147471      15.87090274  T       1.32921208       0.23682502       0.06852844
O        5.05515872       1.68555745      16.05086244  T      -0.27401637       0.63132683      -1.27803049
O        5.11631697       0.89538632      13.27233564  T      -1.48817950       0.93466400       0.43223215
O        6.15424001       3.61096791      14.04945306  T      -0.07398845       0.26897702      -0.02873261
O        7.08412204       1.41065332      14.69753521  T       0.18797091       1.01691403       0.76376655
O        9.02044831       2.29131063      16.36598939  T      -0.59235912       0.48090546       1.23110006
O        9.59203048       0.41279328      14.76703953  T       0.98109389      -0.16493742       0.24018913
O        0.91854402       9.75014952      12.62249023  T       0.27393244       0.21359006      -0.45855986
O        1.12249546       8.23096533      14.62984034  T      -0.47776265      -0.46946060       0.38699153
O        9.93008558       6.95660358      12.17594479  T       1.53262923      -0.69519991       1.10227176
O        5.24677069       6.16743813      14.59330763  T       1.23160060      -0.49976502       0.59783854
O        5.64947489       5.57249928      12.16476054  T       0.12703005      -0.69595834      -0.86922201
O        7.76124311       5.82768106      13.63822663  T      -0.53819264       0.34041746      -0.09888772
O        5.58941805       8.26999821      12.62747992  T       0.00798816      -0.75016955       0.30886566
O        8.61556031       8.37044457      13.62699878  T       0.35658959      -0.28639688      -0.21780897
O        2.43074631       5.17144996      21.48717027  T       0.12584024      -0.72207884       0.13767221
O        0.20074320       6.16244617      22.75878721  T       0.24910797      -0.39020414      -0.67923463
O        1.86934408       0.16987330      20.03590216  T       0.32772141       0.49681119       0.88624160
O        2.24206325       2.94424080      19.94547406  T       0.51116162      -1.62805557      -0.05078823
O        3.44672932       1.28438111      18.21508377  T      -0.12550771       0.30790989       0.11644965
O        0.86610558       1.57270128      18.04236517  T      -0.88936633       0.82214363       0.28763371
O        0.40794157       4.07926893      17.77305114  T      -0.06515997      -0.82701055       0.28408164
O        9.09404472       1.36698533      21.43255622  T      -0.03369572       0.26190738       0.31388232
O        5.42717827       3.02326672      18.27789788  T       0.38264474       0.64593253      -0.81315049
O        4.65783505       3.93922866      20.63050113  T       0.35744082      -0.25745768       0.32652742
O        7.06931719       2.71971902      20.29589888  T      -0.16933622       0.42318110       0.91814243
O        6.43197935       0.48282489      21.45310568  T       0.39964606       0.53141145       0.60052718
O        6.61395744       5.22774479      19.38353981  T      -0.05385102       0.22298926      -0.21163706
O        7.93536909       9.80660897      16.71767151  T      -0.12674293      -0.04476194       0.78578058
O        3.83322835       6.99189825      16.85408128  T       0.05609423      -0.45040196      -0.47426615
O        3.78045173       9.40469485      21.41148827  T       0.78474175      -0.33169778      -0.42394171
O        3.22535783       7.98895901      19.12350079  T       0.51742195       0.33186917       0.04415867
O        1.26164209       6.64862802      17.73245367  T       0.60192050       0.20813296       0.08498154
O        3.20460198       5.27737277      18.87321366  T      -0.01136297       0.36830439      -0.12986076
O        0.28653717       5.56607308      20.05189850  T      -1.63256748       0.11538212      -1.05400657
O        1.51984871       7.73113646      21.11250778  T       0.18930363       1.08822110       0.70830479
O        4.77733901       8.45197752      21.97656963  T      -1.19604094      -0.96686514       0.37323503
O        8.02769600       0.20019600      19.36167230  T       0.42600180       0.00853521      -0.05799198
O        6.90175950       8.82516100      23.71465910  T      -0.60107199      -0.29495187      -0.82343773
O        6.21042981       5.78695421      16.89774878  T      -0.50889074       0.47884875      -0.07826067
O        5.74882733       0.25096161      18.20784060  T      -0.32914669      -0.63037939       0.26762237
O        8.68078311       6.02871786      17.91543922  T      -0.04725008       0.57810547       0.15480949
O        6.96739219       7.88536735      18.39999039  T      -0.26690470      -0.54713362      -0.12200354
O        2.12574534       4.64607308       3.83348430  T      -1.26294775       0.73579413       0.44794942
O        1.50443165       2.46365203       2.35292080  T       0.54795512       0.59185987      -2.55491126
O        3.89284202       2.68792758       4.17394922  T      -0.23725715      -0.28265926      -0.24353768
O        3.73808959       4.54922137       6.13224500  T       1.52200441       0.72053614       0.30859154
O        1.65630541       2.93188505       5.80578358  T      -0.31215676       0.33196935      -0.25912662
O        4.87869671       1.32156215       5.86079310  T       0.60544509      -0.07860197       0.76137417
O        5.20892017       0.87341614       3.19922282  T      -0.27749804       0.73064258      -0.45695367
O        6.17608626       3.60620706       4.05318049  T       0.20463889      -0.35237171       0.05104517
O        7.07764349       1.46376360       4.75094669  T      -0.13624244       1.74735013       1.07819375
O        9.10189534       2.36218479       6.34683663  T      -0.18308803      -1.48806209       0.31833590
O        9.63309416       0.52732375       4.67109845  T       0.59534315       1.23202918      -0.61090943
O        0.95621270       9.75312423       2.54332748  T       0.86519586      -0.57403147      -0.86920112
O        1.11054552       8.21909922       4.59983502  T       0.08884206      -1.28767128       0.45192420
O        9.87000000       6.98000000       2.02000000  F       0.00000000       0.00000000       0.00000000
O        5.25133545       6.08815091       4.59413572  T       1.13684766      -0.90765031       0.61270043
O        5.59000000       5.63000000       2.17000000  F       0.00000000       0.00000000       0.00000000
O        7.75514580       5.82024995       3.60801161  T      -0.53684763       0.00147197      -0.18374924
O        5.59700072       8.25705721       2.53505233  T      -0.15104579      -0.05619006      -1.09126721
O        8.61800543       8.38673564       3.58717276  T       0.81403269       0.46878644      -0.25483422
O        3.47834021       4.15782898      11.51014608  T      -0.08956907      -0.24899253       0.15041837
O        1.12777061       4.85784972      11.37845290  T      -0.26124150       0.03614323       0.31382162
O        1.73667384       0.89270837      10.34950944  T       0.46775448      -0.15609955      -0.98391160
O        2.74276045       3.12999429       9.29546230  T      -0.81214239      -0.11290325      -0.49509172
O        3.59804608       1.01604016       8.21494572  T       1.31616565       0.31777475       0.24311999
O        0.99537565       1.60935950       7.96200169  T      -0.85635464      -0.20426348       0.28551523
O        0.44041664       4.18326335       7.86869552  T       0.12574894       0.37087768      -0.34897188
O        9.25839371       1.31535376      11.33219666  T       0.55382568      -0.03745849      -0.72393117
O        5.98512974       2.54794759       7.80824397  T       0.42368454      -0.40131267       0.11044961
O        5.26159768       4.06486541       9.77007348  T      -0.23522538       0.42230009       0.89564414
O        7.40582548       2.46014124      10.03596851  T       0.65378432       0.02948783      -0.14236235
O        6.74356401       0.19833100      11.30277685  T       0.18399881       0.66945675      -0.84680794
O        7.48122194       4.81573634       8.86319787  T      -0.37154485      -0.02086599      -1.52395074
O        8.05429213       9.79920832       6.60798912  T      -0.64130037       0.52780271       0.75279623
O        4.08090336       7.06650358       6.84291893  T      -0.94755368       0.83626706       0.83477988
O        4.02579970       9.58725562      11.17665790  T       0.81871257       0.28999294      -0.68432207
O        3.05002051       8.30619275       8.84331352  T      -0.21736424      -0.42377417       0.09350446
O        1.54006944       6.58760741       7.40348201  T       0.25465854      -0.07897253      -1.89160678
O        3.31284955       5.64680566       9.07080702  T      -0.63439489       0.80625974       0.36488226
O        0.13434160       6.40175989       9.52959399  T      -0.31038053      -1.31679498      -0.53244843
O        2.28083562       7.37539899      11.13962914  T       1.08100347       0.27541288       0.36369135
O        4.93957461       7.36910914      10.30959467  T       0.33240383      -0.70753666       1.72197066
O        8.21762055       0.02870157       9.18138672  T       1.01396986       0.15731675       0.85448897
O        7.50192386       7.19045909      11.29641354  T      -0.27734327      -0.31664533      -0.40403244
O        6.21537233       5.51921130       6.86401018  T       0.28339849       0.26674609      -0.30975038
O        5.81238019       9.86698347       7.98873082  T       0.10944418      -0.09643449      -0.50158981
O        8.90435056       6.09409075       7.17964012  T       1.00542799       0.30702245       0.21443290
O        7.20638188       7.67093782       8.18569004  T      -0.71519001      -0.27430055       0.22886430
O        3.55000000       4.18000000       1.53000000  F       0.00000000       0.00000000       0.00000000
O        1.14000000       4.89000000       1.35000000  F       0.00000000       0.00000000       0.00000000
O        9.29000000       1.31000000       1.44000000  F       0.00000000       0.00000000       0.00000000
O        6.84000000       0.20000000       1.30000000  F       0.00000000       0.00000000       0.00000000
O        3.95000000       9.60000000       1.25000000  F       0.00000000       0.00000000       0.00000000
O        2.28000000       7.42000000       1.08000000  F       0.00000000       0.00000000       0.00000000
O        7.52000000       7.21000000       1.37000000  F       0.00000000       0.00000000       0.00000000
Si       2.11741272       3.95848609      12.33966428  T      -0.46605946       0.29200415       0.88555391
Si       2.91144756       3.63403802      15.03867818  T      -0.09754993       0.29702259      -0.72210698
Si       0.84294650       1.14115708      11.70027545  T      -0.93776099      -0.57005698      -0.99243518
Si       8.32810195       1.01759293      15.61530412  T       0.74035078       0.59131406       0.45742805
Si       5.52121866       2.05656714      14.43987896  T       1.72756922       1.11697568       0.50763707
Si       4.76021571       5.85421354      16.11193068  T       0.13537345      -1.47753658       0.64082626
Si       0.02129644       9.15068782      13.88355765  T      -0.04199916       0.82012276      -0.10634362
Si       6.19297399       5.17443894      13.61871467  T       0.24450959      -0.99347054      -0.16897121
Si       5.39411362       9.79148469      12.15741268  T      -1.24633576       1.85468465       1.51490137
Si       8.39413347       7.03128011      12.69734320  T      -0.02211047      -0.14152578      -0.77732069
Si       3.11729578       4.30789324      20.22024668  T       1.66185531       0.06540509       0.43960421
Si       2.10019727       1.47070326      19.06348096  T       0.00625540       0.81929176      -0.57287764
Si       0.47772446       2.68209877      16.90179253  T      -0.19434909       0.57724062      -0.99718366
Si       4.94840932       1.56396221      17.63190991  T       0.75901162      -0.40533294       0.06588523
Si       5.95909609       3.73858842      19.67904414  T      -0.00247136      -0.79584957      -0.82181966
Si       7.69271993       1.24595511      20.55570174  T       0.44447966       0.50812061      -0.81697827
Si       2.56772786       8.75202953      20.36930741  T      -0.34684616       0.27039329       0.97106857
Si       2.90864968       6.72161100      18.14936545  T      -0.63024760       0.32599824       0.48355518
Si       1.09713643       6.13487917      21.32769828  T       0.53183922      -0.29291305      -0.45818491
Si       0.15150590       5.55976004      18.38823518  T      -0.70376482      -0.04157748      -0.03522350
Si       6.10538535       9.22535447      22.47470937  T      -0.65483718       0.53755730       0.28797859
Si       7.10670872       6.26122670      18.15876084  T      -0.85704890       0.19529280       0.60525693
Si       7.17674561       9.47589450      18.16511638  T       0.25008393      -0.25556050      -0.69066085
Si       2.10000000       3.98000000       2.32000000  F       0.00000000       0.00000000       0.00000000
Si       2.91347914       3.63550759       5.03119627  T      -1.36933019      -0.18292884      -0.82441364
Si       0.89000000       1.15000000       1.77000000  F       0.00000000       0.00000000       0.00000000
Si       8.35736982       1.07492044       5.60724078  T       1.43768886       0.31796057       0.45790013
Si       5.50528334       1.98109581       4.42536261  T       1.44078516       0.16309499      -0.33664113
Si       4.80771544       5.82558665       6.12622319  T       0.32980379      -0.49703400       0.64765507
Si       0.05922160       9.12312895       3.95682713  T       0.16079307       1.19594976       0.73848118
Si       6.19132822       5.15813487       3.63670207  T       0.00150111      -1.12940822      -1.05902492
Si       5.42000000       9.77000000       2.06000000  F       0.00000000       0.00000000       0.00000000
Si       8.43058587       7.02944165       2.75527734  T       0.66562492      -0.33621364      -0.15913468
Si       3.70808058       4.27063797       9.92697177  T      -0.46270149      -0.03379077       0.04273638
Si       2.29071234       1.61277977       8.95833871  T      -1.29793750       0.53480222       0.05217482
Si       0.47515371       2.82363881       6.95941033  T       0.19211686      -0.18219285       1.05656901
Si       5.02494628       1.22816192       7.47307597  T       0.43727548       0.30681687      -0.01845259
Si       6.56506118       3.46561240       9.04947894  T       0.09920523       0.24623753       0.74565422
Si       7.93158986       0.96889825      10.47973884  T      -1.70825829      -0.98350473      -0.51578562
Si       3.54842688       8.22922797      10.42611625  T      -0.27202799      -0.43022175      -0.05606324
Si       2.96081225       6.90065193       8.02729676  T      -0.58712544      -0.34287319      -0.51028823
Si       0.92129866       6.43955401      11.01548297  T      -0.65655813      -0.76788997       0.65446941
Si       0.29616339       5.79077577       7.95519142  T       0.36912763      -0.38981890      -0.97719416
Si       5.89580160       7.05366372      11.58909526  T      -0.41944957       0.30371941       1.07799481
Si       7.42642736       6.09018709       7.77943486  T      -0.46396009       0.22157038      -0.21789785
Si       7.37273512       9.28837541       8.03721642  T       0.32486951      -0.36710229       0.39726299
Si       7.93000000       1.02000000       0.50000000  F       0.00000000       0.00000000       0.00000000
Si       0.91000000       6.44000000       0.98000000  F       0.00000000       0.00000000       0.00000000
Si       5.91000000       7.08000000       1.49000000  F       0.00000000       0.00000000       0.00000000
C        5.00595917       5.01222992      24.26081035  T       0.86910052      -0.19564632     -13.21360616
F        5.78631208       6.05857076      24.26514933  T      -0.39074119      -0.06287872     -20.80298560
F        5.79157953       3.93834375      24.26635449  T      -0.53905336       0.32325516     -20.77130480
153
Lattice="10.0 0.0 0.0 0.0 10.0 0.0 0.0 0.0 43.74" Properties=species:S:1:pos:R:3:move_mask:L:1:momenta:R:3 etch=trj_CF2_30eV_case1 idx=0 index=0 source=trj_CF2_30eV_case1/0000/OUTCAR converged=T time_fs=24.0 pbc="T T T"
O        2.20120568       4.62397747      13.86769497  T      -0.52076629       0.72193124       0.45046556
O        1.46708093       2.46229778      12.40800084  T      -0.46321016      -0.21048139      -1.69880796
O        3.85262541       2.61828819      14.25147782  T      -0.39669468      -1.11643984       0.57034588
O        3.77385659       4.55686909      16.10973213  T      -1.07993941      -0.94677838       0.18541245
O        1.70477810       2.89290930      15.87114307  T       1.34807483       0.22861548       0.01245075
O        5.05353285       1.68942720      16.04301315  T      -0.25571494       0.62791767      -1.27043844
O        5.10727804       0.90114929      13.27503488  T      -1.45429337       0.94192715       0.44656536
O        6.15377521       3.61271473      14.04918921  T      -0.07748104       0.29771792      -0.05677094
O        7.08546726       1.41689981      14.70222405  T       0.25203287       1.01661857       0.76327769
O        9.01667345       2.29437211      16.37347995  T      -0.63800680       0.51508477       1.20705156
O        9.59800572       0.41196871      14.76861949  T       0.96258317      -0.10079678       0.27709818
O        0.92007192       9.75161444      12.61968436  T       0.22314407       0.26230414      -0.45394475
O        1.11983445       8.22777498      14.63247173  T      -0.39013671      -0.56888121       0.46931950
O        9.93945082       6.95225069      12.18271003  T       1.51300454      -0.72131660       1.10318268
O        5.25437966       6.16415886      14.59694743  T       1.24567241      -0.56889568       0.58779700
O        5.65009025       5.56815060      12.15921332  T       0.07465326      -0.72094189      -0.93413254
O        7.75787104       5.82976330      13.63751137  T      -0.55878896       0.33798790      -0.13443525
O        5.58952582       8.26520283      12.62980582  T       0.02630995      -0.80324299       0.44949112
O        8.61756412       8.36871672      13.62560574  T       0.29640516      -0.27562728      -0.23601686
O        2.43155473       5.16697034      21.48776900  T       0.13666477      -0.73633663       0.05662127
O        0.20244744       6.16000011      22.75429371  T       0.30568682      -0.40662414      -0.78405619
O        1.87133231       0.17301178      20.04128961  T       0.31998631       0.52626376       0.86716493
O        2.24526795       2.93397065      19.94499726  T       0.53530035      -1.71016995      -0.10233675
O        3.44612039       1.28625525      18.21565446  T      -0.07005844       0.30250874       0.06756742
O        0.86056804       1.57763939      18.04410931  T      -0.91278516       0.78533642       0.28074588
O        0.40743171       4.07435555      17.77484015  T      -0.10128944      -0.76937407       0.29944218
O        9.09377712       1.36863444      21.43440267  T      -0.05375897       0.27533440       0.28725789
O        5.42963949       3.02711644      18.27300425  T       0.41882825       0.60658637      -0.78123950
O        4.65998353       3.93766446      20.63263699  T       0.34371845      -0.25222919       0.36898919
O        7.06838942       2.72230628      20.30151824  T      -0.13299927       0.41935839       0.91150494
O        6.43462526       0.48592936      21.45686953  T       0.46168819       0.47954521       0.62494971
O        6.61364052       5.22915234      19.38221307  T      -0.05043213       0.23335890      -0.21932106
O        7.93451768       9.80642165      16.72262731  T      -0.14895775      -0.01478216       0.82471508
O        3.83365096       6.98913222      16.85112400  T       0.07987522      -0.45084240      -0.48692406
O        3.78520277       9.40262127      21.40877915  T       0.76184832      -0.34307972      -0.45862282
O        3.22859118       7.99096972      19.12369674  T       0.53455022       0.32328243       0.02083488
O        1.26552609       6.64976256      17.73327709  T       0.66030645       0.16036269       0.18319546
O        3.20457772       5.27961065      18.87262358  T       0.00384237       0.35836881      -0.06017681
O        0.27636241       5.56678130      20.04513511  T      -1.67746537       0.11726918      -1.14170370
O        1.52105745       7.73770271      21.11684139  T       0.20261680       1.04602291       0.70410841
O        4.76953431       8.44576007      21.97874016  T      -1.34116335      -1.05615974       0.33542757
O        8.03040184       0.20031365      19.36135043  T       0.45420213       0.02935063      -0.04787818
O        6.89806051       8.82324866      23.70965888  T      -0.60170336      -0.32892931      -0.80170215
O        6.20718660       5.78984867      16.89724099  T      -0.54511742       0.46328856      -0.08498053
O        5.74674499       0.24713902      18.20944209  T      -0.34890034      -0.61406883       0.25356945
O        8.68057965       6.03225326      17.91639411  T      -0.02045939       0.57344560       0.15558091
O        6.96568645       7.88191963      18.39933737  T      -0.28875741      -0.57198604      -0.09050442
O        2.11813212       4.65009570       3.83623939  T      -1.21643783       0.57312577       0.44805122
O        1.50789388       2.46728219       2.33712377  T       0.57910174       0.58836180      -2.59003775
O        3.89130923       2.68626482       4.17244038  T      -0.26285089      -0.25800073      -0.24690336
O        3.74749749       4.55368976       6.13408518  T       1.53649298       0.72857992       0.28753411
O        1.65443382       2.93401337       5.80416741  T      -0.29875643       0.36059457      -0.26581973
O        4.88241691       1.32113606       5.86549748  T       0.60619020      -0.05914096       0.76573681
O        5.20736462       0.87791129       3.19641599  T      -0.22848141       0.73261612      -0.45744411
O        6.17734587       3.60401257       4.05335860  T       0.20538440      -0.36213909       0.00612887
O        7.07702218       1.47450745       4.75754594  T      -0.06175992       1.74968801       1.07252286
O        9.10015460       2.35296346       6.34862688  T      -0.37818485      -1.51073978       0.26832777
O        9.63656356       0.53489482       4.66728040  T       0.53500567       1.23311691      -0.63281084
O        0.96152368       9.74959659       2.53804564  T       0.86433841      -0.57441309      -0.85004633
O        1.11155770       8.21068816       4.60296842  T       0.23609070      -1.44762282       0.56577086
O        9.87000000       6.98000000       2.02000000  F       0.00000000       0.00000000       0.00000000
O        5.25835074       6.08263153       4.59779800  T       1.14776070      -0.88941288       0.57927316
O        5.59000000       5.63000000       2.17000000  F       0.00000000       0.00000000       0.00000000
O        7.75182655       5.82017315       3.60686090  T      -0.54255018      -0.02561064      -0.19166427
O        5.59604608       8.25638215       2.52865761  T      -0.16037699      -0.16261232      -0.98955159
O        8.62291243       8.38976773       3.58567267  T       0.78332498       0.51738129      -0.23435718
O        3.47799342       4.15627835      11.51127216  T      -0.02482421      -0.25624376       0.21652608
O        1.12615368       4.85813130      11.38041796  T      -0.26493618       0.05432240       0.32645554
O        1.73962370       0.89173678      10.34326076  T       0.49111179      -0.16136081      -1.04783860
O        2.73779173       3.12940921       9.29241455  T      -0.80485485      -0.07428665      -0.49680238
O        3.60610422       1.01801837       8.21645970  T       1.30171045       0.32829267       0.25313252
O        0.99010529       1.60823267       7.96371003  T      -0.85982711      -0.16304475       0.27068982
O        0.44121486       4.18539984       7.86644379  T       0.13442506       0.32197552      -0.38478752
O        9.26185879       1.31505376      11.32779044  T       0.56996029      -0.06074112      -0.71303925
O        5.98771051       2.54553308       7.80898364  T       0.41789365      -0.38315536       0.13215138
O        5.26031864       4.06738584       9.77556621  T      -0.17948420       0.39771306       0.89202931
O        7.40976868       2.46034996      10.03497174  T       0.63002628       0.03949577      -0.18243337
O        6.74466562       0.20249524      11.29761531  T       0.16832394       0.68403064      -0.82919983
O        7.47895828       4.81570121       8.85374049  T      -0.36558462       0.00789547      -1.55447606
O        8.05036872       9.80244310       6.61269650  T      -0.63483259       0.52639378       0.77781568
O        4.07504093       7.07160556       6.84803686  T      -0.95617450       0.82150926       0.82705394
O        4.03085007       9.58921949      11.17250699  T       0.82601978       0.34904198      -0.66776552
O        3.04864634       8.30364617       8.84409612  T      -0.23019766      -0.40508215       0.16175695
O        1.54161972       6.58726497       7.39137951  T       0.24822630      -0.03409922      -2.04852871
O        3.30888936       5.65167900       9.07307741  T      -0.65508769       0.77831975       0.37595703
O        0.13270049       6.39357813       9.52634711  T      -0.22294668      -1.34717431      -0.52241290
O        2.28753869       7.37714899      11.14181427  T       1.09721913       0.29144543       0.34876314
O        4.94178109       7.36450387      10.32024270  T       0.38189472      -0.79037561       1.74213753
O        8.22403426       0.02960033       9.18679845  T       1.07324076       0.13153144       0.90269362
O        7.50032438       7.18847156      11.29415585  T      -0.24186152      -0.33050665      -0.33066641
O        6.21709730       5.52088849       6.86206905  T       0.27864576       0.27968156      -0.32223370
O        5.81322386       9.86641828       7.98567906  T       0.16650872      -0.08851080      -0.49156107
O        8.91077637       6.09609525       7.18063359  T       1.08073842       0.34674530       0.10907761
O        7.20199541       7.66918001       8.18713141  T      -0.71306928      -0.29722358       0.24070608
O        3.55000000       4.18000000       1.53000000  F       0.00000000       0.00000000       0.00000000
O        1.14000000       4.89000000       1.35000000  F       0.00000000       0.00000000       0.00000000
O        9.29000000       1.31000000       1.44000000  F       0.00000000       0.00000000       0.00000000
O        6.84000000       0.20000000       1.30000000  F       0.00000000       0.00000000       0.00000000
O        3.95000000       9.60000000       1.25000000  F       0.00000000       0.00000000       0.00000000
O        2.28000000       7.42000000       1.08000000  F       0.00000000       0.00000000       0.00000000
O        7.52000000       7.21000000       1.37000000  F       0.00000000       0.00000000       0.00000000
Si       2.11558090       3.95964413      12.34285963  T      -0.58091915       0.36888472       0.94002382
Si       2.91101993       3.63519878      15.03618400  T      -0.14573635       0.36561588      -0.70488252
Si       0.83973442       1.13905481      11.69674828  T      -0.89641336      -0.63202694      -1.02684625
Si       8.33064025       1.01945460      15.61698173  T       0.71163124       0.47258511       0.50203747
Si       5.52710832       2.06044788      14.44169771  T       1.63783116       1.10200874       0.53128348
Si       4.76076891       5.84909669      16.11413442  T       0.17821397      -1.44884887       0.61780739
Si       0.02113076       9.15371176      13.88298619  T      -0.05026974       0.90584967      -0.22181313
Si       6.19393043       5.17099086      13.61842360  T       0.30111224      -0.97440536      -0.00109953
Si       5.38970091       9.79817404      12.16255682  T      -1.27394027       1.96396156       1.42455312
Si       8.39411921       7.03077439      12.69457725  T       0.01540741      -0.14814470      -0.80455641
Si       3.12302387       4.30809231      20.22181740  T       1.60953502       0.04535050       0.45586130
Si       2.10029681       1.47383017      19.06166206  T       0.04845927       0.96566855      -0.46651848
Si       0.47714424       2.68429941      16.89854666  T      -0.13431084       0.68050844      -0.85898552
Si       4.95104192       1.56261543      17.63223852  T       0.74451212      -0.36421645       0.11755655
Si       5.95910018       3.73585281      19.67590335  T       0.00585497      -0.76620720      -0.97308413
Si       7.69414143       1.24756457      20.55315649  T       0.36884803       0.41189479      -0.63695025
Si       2.56652553       8.75301709      20.37293149  T      -0.33845874       0.29576024       1.09812857
Si       2.90613729       6.72269221      18.15096004  T      -0.80308201       0.29408429       0.42604723
Si       1.09900031       6.13395050      21.32634207  T       0.53153128      -0.23793308      -0.32074986
Si       0.14918379       5.55963806      18.38799437  T      -0.62306674      -0.02901189      -0.10548113
Si       6.10335096       9.22763989      22.47556972  T      -0.51371595       0.76768425       0.19947668
Si       7.10364149       6.26182190      18.16096449  T      -0.89526680       0.14390286       0.65269871
Si       7.17766660       9.47512156      18.16243050  T       0.27583365      -0.18806595      -0.84145639
Si       2.10000000       3.98000000       2.32000000  F       0.00000000       0.00000000       0.00000000
Si       2.90855647       3.63503310       5.02827924  T      -1.44063135      -0.08552952      -0.84104360
Si       0.89000000       1.15000000       1.77000000  F       0.00000000       0.00000000       0.00000000
Si       8.36260396       1.07589369       5.60888270  T       1.54971979       0.23697314       0.47959356
Si       5.51014763       1.98174769       4.42422146  T       1.33797492       0.20968333      -0.31394594
Si       4.80878454       5.82371669       6.12843614  T       0.28054435      -0.56590439       0.61901829
Si       0.05966392       9.12768924       3.95921523  T       0.09771858       1.40715919       0.62822741
Si       6.19140428       5.15415712       3.63313256  T       0.04166184      -1.14440211      -0.98044845
Si       5.42000000       9.77000000       2.06000000  F       0.00000000       0.00000000       0.00000000
Si       8.43285236       7.02827040       2.75467103  T       0.62885350      -0.33266494      -0.18634609
Si       3.70625815       4.27061696       9.92689861  T      -0.58094659       0.02205060      -0.08466536
Si       2.28606030       1.61466509       8.95861984  T      -1.35648095       0.54015009       0.10550576
Si       0.47626363       2.82294368       6.96325883  T       0.43891893      -0.21549023       1.14130847
Si       5.02666685       1.22911376       7.47296982  T       0.54789089       0.23710345      -0.04084260
Si       6.56546023       3.46638805       9.05220866  T       0.12736485       0.19669665       0.81424838
Si       7.92543712       0.96560151      10.47796695  T      -1.80333304      -0.89735822      -0.49572544
Si       3.54728592       8.22764378      10.42583988  T      -0.37696640      -0.47507205      -0.10196955
Si       2.95905315       6.89942368       8.02567925  T      -0.42121122      -0.35866076      -0.41358719
Si       0.91899024       6.43676621      11.01760574  T      -0.65908730      -0.82408577       0.55617566
Si       0.29718776       5.78938759       7.95216225  T       0.22055468      -0.40085691      -0.75534685
Si       5.89433977       7.05481208      11.59270976  T      -0.41457740       0.34936302       0.99002013
Si       7.42473920       6.09091349       7.77885505  T      -0.49690929       0.19440781      -0.11590801
Si       7.37361944       9.28718789       8.03833304  T       0.18095135      -0.31047376       0.24446099
Si       7.93000000       1.02000000       0.50000000  F       0.00000000       0.00000000       0.00000000
Si       0.91000000       6.44000000       0.98000000  F       0.00000000       0.00000000       0.00000000
Si       5.91000000       7.08000000       1.49000000  F       0.00000000       0.00000000       0.00000000
C        5.01279768       5.01049752      24.15272497  T       0.79713067      -0.22692670     -13.21942114
F        5.78439917       6.05826594      24.15760112  T      -0.34653805      -0.05288504     -20.79955319
F        5.78884334       3.94006693      24.15896919  T      -0.51574458       0.33991401     -20.76836574
153
Lattice="10.0 0.0 0.0 0.0 10.0 0.0 0.0 0.0 43.74" Properties=species:S:1:pos:R:3:move_mask:L:1:momenta:R:3 etch=trj_CF2_30eV_case1 idx=0 index=0 source=trj_CF2_30eV_case1/0000/OUTCAR converged=T time_fs=25.0 pbc="T T T"
O        2.19811512       4.62807392      13.87039963  T      -0.48598752       0.61192312       0.42955687
O        1.46419588       2.46098371      12.39762104  T      -0.47530693      -0.21508321      -1.68087035
O        3.85021422       2.61152957      14.25486566  T      -0.38955762      -1.08260183       0.53260094
O        3.76718808       4.55091139      16.11081060  T      -1.08868922      -0.99006974       0.16691792
O        1.71303971       2.89426231      15.87108431  T       1.33761471       0.21020736      -0.02870832
O        5.05201788       1.69325402      16.03534805  T      -0.23786851       0.61736814      -1.21835717
O        5.09847991       0.90694499      13.27781398  T      -1.40977601       0.94533823       0.45823753
O        6.15328797       3.61459795      14.04876123  T      -0.08130640       0.31309362      -0.08206596
O        7.08723347       1.42312359      14.70690334  T       0.32476672       1.00959193       0.76056668
O        9.01260895       2.29762221      16.38079201  T      -0.68633876       0.54238706       1.17314667
O        9.60382316       0.41158279      14.77046714  T       0.93001346      -0.02250955       0.32705186
O        0.92127825       9.75335659      12.61693135  T       0.16934424       0.30383764      -0.44143447
O        1.11769140       8.22399181      14.63559240  T      -0.30954058      -0.66213648       0.54603932
O        9.94861341       6.94776119      12.18950651  T       1.46706567      -0.73975573       1.11218873
O        5.26205168       6.16044910      14.60052528  T       1.25203690      -0.63983793       0.57776319
O        5.65040533       5.56364425      12.15332985  T       0.02943612      -0.74720517      -0.97841766
O        7.75439756       5.83183247      13.63657285  T      -0.57110776       0.33618824      -0.17155749
O        5.58973258       8.26022449      12.63300523  T       0.04019543      -0.80981731       0.59320854
O        8.61920370       8.36706923      13.62410065  T       0.23818848      -0.26010787      -0.25425076
O        2.43241885       5.16241695      21.48786217  T       0.14434892      -0.74611522      -0.02642095
O        0.20449216       6.15745305      22.74916617  T       0.35985988      -0.42311001      -0.88548831
O        1.87327381       0.17634163      20.04653437  T       0.31254526       0.55897269       0.83984713
O        2.24866166       2.92331770      19.94424133  T       0.57264923      -1.75253436      -0.14144848
O        3.44589506       1.28809493      18.21589548  T      -0.00109285       0.29672743       0.00934450
O        0.85491609       1.58233330      18.04581523  T      -0.92645434       0.74268025       0.27528612
O        0.40669489       4.06986280      17.77673483  T      -0.13894451      -0.69033046       0.31834190
O        9.09338210       1.37036655      21.43608030  T      -0.07512126       0.28894601       0.25896872
O        5.43231787       3.03069980      18.26830182  T       0.45332285       0.55928759      -0.75094990
O        4.66206955       3.93613088      20.63503086  T       0.33721135      -0.24740498       0.41057698
O        7.06768209       2.72486577      20.30708210  T      -0.09769179       0.41417056       0.90003861
O        6.43764196       0.48871113      21.46077242  T       0.52033588       0.42655371       0.64566999
O        6.61332724       5.23058764      19.38085979  T      -0.05270715       0.23196757      -0.22021101
O        7.93355767       9.80644215      16.72775723  T      -0.16197886       0.02284341       0.84226049
O        3.83419131       6.98636009      16.84812448  T       0.09437079      -0.45242702      -0.48802386
O        3.78979559       9.40048959      21.40585653  T       0.73324142      -0.35057887      -0.49343409
O        3.23190746       7.99293025      19.12376911  T       0.54428939       0.31552715       0.00400280
O        1.26971813       6.65058674      17.73470106  T       0.70204102       0.10717735       0.28031649
O        3.20465307       5.28175003      18.87249600  T       0.02107871       0.33636534       0.02056908
O        0.26598564       5.56753287      20.03795785  T      -1.69827048       0.12946807      -1.18857024
O        1.52231824       7.74393351      21.12116095  T       0.20634270       0.97924841       0.70372121
O        4.76092757       8.43903451      21.98070603  T      -1.45669986      -1.13206909       0.30679150
O        8.03325985       0.20055176      19.36107387  T       0.47544499       0.04775398      -0.04324163
O        6.89439265       8.82111304      23.70485145  T      -0.59113512      -0.36758067      -0.76095866
O        6.20376264       5.79263536      16.89672822  T      -0.56760482       0.44374608      -0.07976485
O        5.74454688       0.24342894      18.21094916  T      -0.36669857      -0.59381659       0.23688309
O        8.68051640       6.03575819      17.91734255  T      -0.00172296       0.56821928       0.15267162
O        6.96384660       7.87838576      18.39888093  T      -0.31056131      -0.57503239      -0.05803637
O        2.11081462       4.65309725       3.83897116  T      -1.16675601       0.40351466       0.44042874
O        1.51153411       2.47085207       2.32112753  T       0.60587411       0.57210016      -2.61986767
O        3.88960627       2.68476976       4.17092866  T      -0.29269265      -0.22802847      -0.24443887
O        3.75689295       4.55810150       6.13574358  T       1.51794086       0.70215683       0.24976479
O        1.65262403       2.93630472       5.80253549  T      -0.29206876       0.38499660      -0.26420947
O        4.88613763       1.32084627       5.87014113  T       0.60559623      -0.03431060       0.74171091
O        5.20612205       0.88240143       3.19360557  T      -0.17558757       0.72907400      -0.45804765
O        6.17860501       3.60176381       4.05324737  T       0.20446780      -0.37008367      -0.04315246
O        7.07692838       1.48521937       4.76412588  T       0.03521324       1.73698883       1.07179973
O        9.09731780       2.34369027       6.35017098  T      -0.53884587      -1.50424283       0.23886982
O        9.63966686       0.54245303       4.66332813  T       0.47637229       1.22778779      -0.65468124
O        0.96682022       9.74607788       2.53290405  T       0.86045515      -0.57116801      -0.82339449
O        1.11339151       8.20137543       4.60674865  T       0.35580226      -1.58066241       0.66218934
O        9.87000000       6.98000000       2.02000000  F       0.00000000       0.00000000       0.00000000
O        5.26542167       6.07723886       4.60123912  T       1.15487306      -0.86639613       0.54086312
O        5.59000000       5.63000000       2.17000000  F       0.00000000       0.00000000       0.00000000
O        7.74850352       5.81994497       3.60565234  T      -0.53796170      -0.04775253      -0.20259785
O        5.59502654       8.25507493       2.52292435  T      -0.17225658      -0.26150970      -0.87592833
O        8.62761345       8.39307233       3.58428965  T       0.74712959       0.55749242      -0.21669320
O        3.47801950       4.15468150      11.51280438  T       0.03165588      -0.26402881       0.28239779
O        1.12452284       4.85850362      11.38246272  T      -0.26581369       0.06566375       0.33972293
O        1.74268262       0.89071647      10.33668287  T       0.50319993      -0.17210752      -1.09094274
O        2.73289259       3.12911536       9.28937074  T      -0.78972464      -0.01837280      -0.49396163
O        3.61395922       1.02008756       8.21808421  T       1.25045408       0.34727122       0.27887287
O        0.98482496       1.60735383       7.96532336  T      -0.85952009      -0.12371642       0.25474622
O        0.44206866       4.18718666       7.86396918  T       0.14382656       0.25733826      -0.42136581
O        9.26534107       1.31460338      11.32342463  T       0.55942398      -0.08638363      -0.71074020
O        5.99026991       2.54326321       7.80988311  T       0.41667857      -0.35436037       0.16240599
O        5.25941003       4.06973934       9.78101094  T      -0.11528494       0.36810535       0.88013953
O        7.41355520       2.46063568      10.03372840  T       0.60290326       0.05442782      -0.22249574
O        6.74556431       0.20669932      11.29264987  T       0.11800985       0.68247842      -0.78303378
O        7.47673571       4.81581633       8.84413544  T      -0.35814635       0.02782733      -1.57187796
O        8.04651702       9.80567620       6.61751041  T      -0.61790513       0.52717489       0.78741841
O        4.06922352       7.07654957       6.85302036  T      -0.93296737       0.78518524       0.79118070
O        4.03593723       9.59153264      11.16845832  T       0.83057058       0.40345232      -0.65120584
O        3.04719453       8.30122551       8.84530158  T      -0.24269447      -0.38284494       0.23095156
O        1.54309657       6.58717212       7.37835503  T       0.23094503       0.00215450      -2.19129302
O        3.30481131       5.65633384       9.07543561  T      -0.67283140       0.73533164       0.39335708
O        0.13161606       6.38523113       9.52320803  T      -0.12923202      -1.37058370      -0.49736643
O        2.29425383       7.37894478      11.14391868  T       1.08496186       0.29034931       0.33749586
O        4.94421499       7.35942930      10.33093757  T       0.40590494      -0.86005517       1.73676526
O        8.23077685       0.03027648       9.19241199  T       1.12097312       0.08484592       0.92019563
O        7.49897207       7.18640405      11.29235967  T      -0.19698669      -0.34265211      -0.25395567
O        6.21879504       5.52264632       6.86005701  T       0.27450211       0.29302027      -0.33285246
O        5.81443460       9.86588835       7.98270480  T       0.22867946      -0.08489227      -0.47636190
O        8.91754666       6.09835651       7.18097914  T       1.11733044       0.39064644       0.00353161
O        7.19763267       7.66730025       8.18864604  T      -0.70747931      -0.31385325       0.25272513
O        3.55000000       4.18000000       1.53000000  F       0.00000000       0.00000000       0.00000000
O        1.14000000       4.89000000       1.35000000  F       0.00000000       0.00000000       0.00000000
O        9.29000000       1.31000000       1.44000000  F       0.00000000       0.00000000       0.00000000
O        6.84000000       0.20000000       1.30000000  F       0.00000000       0.00000000       0.00000000
O        3.95000000       9.60000000       1.25000000  F       0.00000000       0.00000000       0.00000000
O        2.28000000       7.42000000       1.08000000  F       0.00000000       0.00000000       0.00000000
O        7.52000000       7.21000000       1.37000000  F       0.00000000       0.00000000       0.00000000
Si       2.11335342       3.96105782      12.34622924  T      -0.69192250       0.43789252       0.98490853
Si       2.91043598       3.63658807      15.03374279  T      -0.18676776       0.42742779      -0.69198929
Si       0.83669118       1.13673715      11.69307951  T      -0.84129018      -0.69299930      -1.07329558
Si       8.33308295       1.02089613      15.61881704  T       0.68579400       0.35154483       0.54772551
Si       5.53266126       2.06427492      14.44358856  T       1.53530524       1.08634191       0.54879519
Si       4.76144546       5.84407630      16.11624328  T       0.20565963      -1.42250136       0.58661086
Si       0.02095952       9.15700427      13.88199982  T      -0.04510227       0.97336026      -0.34297828
Si       6.19507223       5.16764602      13.61868356  T       0.35038093      -0.93430442       0.14538720
Si       5.38521988       9.80518327      12.16736561  T      -1.28561068       2.03737681       1.32343774
Si       8.39424901       7.03024097      12.69171494  T       0.06002770      -0.15738758      -0.83215491
Si       3.12853076       4.30819318      20.22341939  T       1.53556728       0.00949744       0.45745815
Si       2.10052345       1.47743832      19.06022023  T       0.07899066       1.09395927      -0.35784361
Si       0.47680196       2.68685424      16.89578253  T      -0.05875705       0.77950115      -0.72206746
Si       4.95360630       1.56141762      17.63270646  T       0.72008370      -0.32027428       0.14570978
Si       5.95914345       3.73324156      19.67224533  T       0.02003727      -0.72492089      -1.11714476
Si       7.69530326       1.24883499      20.55125399  T       0.29617088       0.31446832      -0.44988635
Si       2.56537341       8.75410669      20.37696895  T      -0.31814377       0.32873171       1.20705695
Si       2.90305338       6.72367877      18.15233341  T      -0.95649684       0.27189903       0.35737450
Si       1.10083988       6.13321536      21.32543371  T       0.51789387      -0.18246894      -0.20242926
Si       0.14715272       5.55955263      18.38748037  T      -0.53765284      -0.02053141      -0.19124159
Si       6.10176005       9.23071243      22.47607943  T      -0.40167093       0.98686116       0.08792396
Si       7.10045656       6.26222694      18.16331318  T      -0.92415051       0.08671337       0.68801614
Si       7.17867009       9.47456881      18.15925430  T       0.29702728      -0.12984994      -0.97041217
Si       2.10000000       3.98000000       2.32000000  F       0.00000000       0.00000000       0.00000000
Si       2.90343116       3.63492459       5.02532718  T      -1.48524295       0.02583059      -0.84487505
Si       0.89000000       1.15000000       1.77000000  F       0.00000000       0.00000000       0.00000000
Si       8.36817540       1.07656856       5.61058690  T       1.63007794       0.14729595       0.49341442
Si       5.51462694       1.98256231       4.42317753  T       1.22099999       0.25605505      -0.28122290
Si       4.80967368       5.82166557       6.13055955  T       0.22749268      -0.60059025       0.59617074
Si       0.05993938       9.13294227       3.96122872  T       0.06588203       1.59123833       0.52447986
Si       6.19161746       5.15013474       3.62985305  T       0.07982593      -1.15487542      -0.89346552
Si       5.42000000       9.77000000       2.06000000  F       0.00000000       0.00000000       0.00000000
Si       8.43497545       7.02711982       2.75398115  T       0.58364230      -0.32440870      -0.20688878
Si       3.70401030       4.27079322       9.92638117  T      -0.70519348       0.07880401      -0.21057584
Si       2.28125773       1.61654065       8.95905851  T      -1.38401565       0.52955643       0.14219434
Si       0.47819890       2.82212987       6.96737518  T       0.66289179      -0.25022719       1.20908131
Si       5.02878545       1.22981895       7.47279883  T       0.66460866       0.16602024      -0.05541201
Si       6.56594266       3.46698543       9.05516772  T       0.14690853       0.14454532       0.87656307
Si       7.91901602       0.96264632      10.47628027  T      -1.86148078      -0.78831939      -0.46743419
Si       3.54581187       8.22590906      10.42540407  T      -0.46192970      -0.51606853      -0.14687409
Si       2.95784912       6.89814762       8.02440898  T      -0.27061208      -0.37032188      -0.31209287
Si       0.91671332       6.43380254      11.01935578  T      -0.63881320      -0.86840561       0.44179173
Si       0.29773114       5.78799035       7.94990373  T       0.09476851      -0.39495811      -0.53720885
Si       5.89291360       7.05608558      11.59602899  T      -0.39877211       0.37498534       0.90988732
Si       7.42297807       6.09155084       7.77860998  T      -0.50558984       0.17078742      -0.02680326
Si       7.37400317       9.28621161       8.03894637  T       0.03913465      -0.24658298       0.10987108
Si       7.93000000       1.02000000       0.50000000  F       0.00000000       0.00000000       0.00000000
Si       0.91000000       6.44000000       0.98000000  F       0.00000000       0.00000000       0.00000000
Si       5.91000000       7.08000000       1.49000000  F       0.00000000       0.00000000       0.00000000
C        5.01891218       5.00853544      24.04458157  T       0.69218166      -0.25141500     -13.22852719
F        5.78274968       6.05804104      24.05007026  T      -0.28935174      -0.03232026     -20.79630589
F        5.78627758       3.94182825      24.05159755  T      -0.47317377       0.33779955     -20.76581097
153
Lattice="10.0 0.0 0.0 0.0 10.0 0.0 0.0 0.0 43.74" Properties=species:S:1:pos:R:3:move_mask:L:1:momenta:R:3 etch=trj_CF2_30eV_case1 idx=0 index=0 source=trj_CF2_30eV_case1/0000/OUTCAR converged=T time_fs=26.0 pbc="T T T"
O        2.19523755       4.63148691      13.87295946  T      -0.45152829       0.49959711       0.40338885
O        1.46125770       2.45968202      12.38737712  T      -0.48057202      -0.20653455      -1.65464550
O        3.84783363       2.60502151      14.25801144  T      -0.38676067      -1.03484555       0.49159333
O        3.76052666       4.54475273      16.11179275  T      -1.07754182      -1.01211181       0.15415261
O        1.72114563       2.89547081      15.87082053  T       1.29737742       0.18157178      -0.05427944
O        5.05061145       1.69699471      16.02813324  T      -0.22031751       0.59992880      -1.12438949
O        5.08998717       0.91274987      13.28065636  T      -1.35486227       0.94491020       0.46715562
O        6.15277615       3.61653086      14.04818797  T      -0.08548969       0.31369747      -0.10400080
O        7.08946777       1.42928472      14.71155793  T       0.40408051       0.99631652       0.75512797
O        9.00824484       2.30101962      16.38786849  T      -0.73515988       0.56316982       1.13055775
O        9.60940230       0.41171396      14.77265636  T       0.88537646       0.06703359       0.38790331
O        0.92214725       9.75533109      12.61427787  T       0.11342508       0.33797692      -0.42166289
O        1.11601531       8.21966056      14.63916264  T      -0.23843639      -0.74704287       0.61548264
O        9.95741997       6.94318104      12.19637906  T       1.39762206      -0.75095781       1.12758649
O        5.26973787       6.15630045      14.60404287  T       1.25020742      -0.71168696       0.56825222
O        5.65046740       5.55897450      12.14724144  T      -0.00761411      -0.77400960      -1.00072498
O        7.75087519       5.83389284      13.63540240  T      -0.57464364       0.33513473      -0.20992675
O        5.59001076       8.25534551      12.63709345  T       0.04959706      -0.77137633       0.73875609
O        8.62049505       8.36553303      13.62248427  T       0.18318662      -0.23927462      -0.27221884
O        2.43332098       5.15781749      21.48744295  T       0.14878797      -0.75130436      -0.11030422
O        0.20685983       6.15480448      22.74343033  T       0.41070029      -0.43970162      -0.98187582
O        1.87517111       0.17987977      20.05158747  T       0.30563335       0.59390919       0.80485708
O        2.25232362       2.91252884      19.94328678  T       0.62250570      -1.75438219      -0.16682230
O        3.44612669       1.28989852      18.21575458  T       0.07812197       0.29080099      -0.05648551
O        0.84921228       1.58674868      18.04749322  T      -0.92955081       0.69472431       0.27171741
O        0.40572419       4.06591596      17.77875410  T      -0.17732721      -0.59198567       0.33983854
O        9.09285313       1.37218276      21.43758032  T      -0.09729537       0.30272329       0.22950100
O        5.43520215       3.03397011      18.26377920  T       0.48586383       0.50474219      -0.72276491
O        4.66413853       3.93462489      20.63767156  T       0.33818572      -0.24341143       0.44866011
O        7.06718635       2.72738956      20.31256056  T      -0.06419773       0.40774028       0.88368468
O        6.44100714       0.49116764      21.46478912  T       0.57512994       0.37386177       0.66186759
O        6.61298220       5.23197791      19.37952268  T      -0.06076538       0.21871541      -0.21401883
O        7.93254762       9.80671574      16.73292638  T      -0.16515490       0.06754257       0.83732826
O        3.83479143       6.98357426      16.84515325  T       0.09933480      -0.45533493      -0.47779857
O        3.79419597       9.39832424      21.40272066  T       0.69924346      -0.35402947      -0.52800762
O        3.23525903       7.99484568      19.12375904  T       0.54592959       0.30858030      -0.00598565
O        1.27411234       6.65106974      17.73671400  T       0.72595274       0.04937800       0.37476132
O        3.20484017       5.28371989      18.87289453  T       0.04019557       0.30342015       0.11086812
O        0.25555552       5.56839005      20.03061988  T      -1.69492994       0.15155543      -1.19413494
O        1.52357397       7.74968364      21.12548948  T       0.20112920       0.88988718       0.70697086
O        4.75170890       8.43188769      21.98252661  T      -1.54019073      -1.19316826       0.28819351
O        8.03622537       0.20089539      19.36080913  T       0.48912854       0.06374655      -0.04397739
O        6.89082059       8.81872748      23.70034709  T      -0.57084980      -0.41018149      -0.70351885
O        6.20024445       5.79528990      16.89628520  T      -0.57575746       0.42025015      -0.06223923
O        5.74224766       0.23985405      18.21234596  T      -0.38167504      -0.57013445       0.21766943
O        8.68054188       6.03922980      17.91826138  T       0.00837118       0.56261998       0.14590950
O        6.96187343       7.87490139      18.39862583  T      -0.33215458      -0.55588048      -0.02499426
O        2.10381003       4.65504067       3.84163349  T      -1.11464410       0.22877864       0.42551463
O        1.51532465       2.47428177       2.30496358  T       0.62804914       0.54266651      -2.64473387
O        3.88770721       2.68347491       4.16945027  T      -0.32670046      -0.19281109      -0.23605204
O        3.76607366       4.56224706       6.13712427  T       1.46667647       0.64211771       0.19750562
O        1.65083447       2.93873199       5.80093928  T      -0.29214004       0.40481865      -0.25420210
O        4.88985034       1.32072378       5.87455274  T       0.60356377      -0.00478197       0.69046031
O        5.20521553       0.88685385       3.19079221  T      -0.11906054       0.72041090      -0.45830707
O        6.17985321       3.59947127       4.05282098  T       0.20180926      -0.37646418      -0.09646516
O        7.07749270       1.49580818       4.77071473  T       0.15201697       1.70971944       1.07523332
O        9.09361531       2.33455499       6.35160579  T      -0.65933352      -1.46531065       0.23322945
O        9.64241904       0.54995836       4.65924114  T       0.42087198       1.21588700      -0.67672542
O        0.97208318       9.74258977       2.52795043  T       0.85337191      -0.56445715      -0.78874731
O        1.11586859       8.19133654       4.61106270  T       0.44533926      -1.68377956       0.73946306
O        9.87000000       6.98000000       2.02000000  F       0.00000000       0.00000000       0.00000000
O        5.27252320       6.07200182       4.60443208  T       1.15761560      -0.83874806       0.49867523
O        5.59000000       5.63000000       2.17000000  F       0.00000000       0.00000000       0.00000000
O        7.74524151       5.81959696       3.60436747  T      -0.52261059      -0.06460616      -0.21649959
O        5.59392536       8.25319149       2.51792327  T      -0.18703205      -0.34976434      -0.75120662
O        8.63207808       8.39659656       3.58300664  T       0.70652965       0.58890968      -0.20175031
O        3.47836415       4.15303557      11.51473591  T       0.07877972      -0.27219430       0.34626328
O        1.12289458       4.85892430      11.38458999  T      -0.26416051       0.07008567       0.35326204
O        1.74578034       0.88961157      10.32990659  T       0.50372131      -0.18904069      -1.11235508
O        2.72810687       3.12921277       9.28635614  T      -0.76820468       0.05271464      -0.48746746
O        3.62139420       1.02229710       8.21991093  T       1.16562705       0.37381965       0.31861437
O        0.97955934       1.60670743       7.96683802  T      -0.85492508      -0.08757993       0.23877150
O        0.44298194       4.18853419       7.86127060  T       0.15375429       0.17942615      -0.45751147
O        9.26867786       1.31398922      11.31904735  T       0.52277913      -0.11401996      -0.71666542
O        5.99283509       2.54120018       7.81099294  T       0.41968462      -0.31601760       0.20051744
O        5.25891143       4.07189821       9.78635920  T      -0.04672468       0.33451500       0.86076731
O        7.41716707       2.46102614      10.03224163  T       0.57330993       0.07344119      -0.26154231
O        6.74605060       0.21084558      11.28805312  T       0.03434655       0.66536853      -0.70939600
O        7.47456351       4.81602353       8.83446605  T      -0.34916413       0.03767052      -1.57528442
O        8.04280161       9.80891958       6.62233525  T      -0.59044430       0.52963161       0.78137081
O        4.06364415       7.08120997       6.85770071  T      -0.87892278       0.72960055       0.72867941
O        4.04104206       9.59416148      11.16450883  T       0.83162610       0.45158781      -0.63564169
O        3.04566651       8.29895091       8.84693057  T      -0.25506577      -0.35762041       0.29939257
O        1.54443748       6.58727357       7.36450589  T       0.20428597       0.02911975      -2.31657623
O        3.30063270       5.66068227       9.07791806  T      -0.68790594       0.67882707       0.41625452
O        0.13112366       6.37676227       9.52026804  T      -0.03029308      -1.38684255      -0.45765690
O        2.30080737       7.38068204      11.14596637  T       1.04473719       0.27249104       0.33035561
O        4.94671128       7.35397152      10.34151546  T       0.40182935      -0.91496391       1.70368674
O        8.23777564       0.03060346       9.19803981  T       1.15661810       0.01803030       0.90760633
O        7.49792159       7.18426788      11.29104117  T      -0.14376742      -0.35282223      -0.17533483
O        6.22046881       5.52448738       6.85798549  T       0.27080013       0.30679932      -0.34161040
O        5.81603786       9.86536839       7.97983937  T       0.29397438      -0.08516220      -0.45615032
O        8.92442048       6.10089974       7.18067817  T       1.11452008       0.43854579      -0.10138007
O        7.19331459       7.66533984       8.19023495  T      -0.69854816      -0.32335931       0.26489680
O        3.55000000       4.18000000       1.53000000  F       0.00000000       0.00000000       0.00000000
O        1.14000000       4.89000000       1.35000000  F       0.00000000       0.00000000       0.00000000
O        9.29000000       1.31000000       1.44000000  F       0.00000000       0.00000000       0.00000000
O        6.84000000       0.20000000       1.30000000  F       0.00000000       0.00000000       0.00000000
O        3.95000000       9.60000000       1.25000000  F       0.00000000       0.00000000       0.00000000
O        2.28000000       7.42000000       1.08000000  F       0.00000000       0.00000000       0.00000000
O        7.52000000       7.21000000       1.37000000  F       0.00000000       0.00000000       0.00000000
Si       2.11074736       3.96269694      12.34973702  T      -0.79704300       0.49754017       1.01879563
Si       2.90972211       3.63817968      15.03133805  T      -0.21992924       0.48105823      -0.68411415
Si       0.83386403       1.13420978      11.68922834  T      -0.77299997      -0.75169654      -1.13095074
Si       8.33544109       1.02191388      15.62081491  T       0.66335883       0.23072104       0.59511003
Si       5.53783556       2.06804636      14.44552952  T       1.42163668       1.07023762       0.55992232
Si       4.76218956       5.83914324      16.11822923  T       0.21672518      -1.39895628       0.54763260
Si       0.02083001       9.16049901      13.88058468  T      -0.02647563       1.02134496      -0.46631344
Si       6.19637280       5.16447875      13.61941350  T       0.39185807      -0.87289882       0.26715072
Si       5.38072413       9.81238585      12.17180440  T      -1.28262946       2.07464130       1.21332932
Si       8.39454550       7.02967055      12.68875764  T       0.11049780      -0.16929365      -0.85856848
Si       3.13374306       4.30814316      20.22500135  T       1.44145154      -0.04060164       0.44448252
Si       2.10083727       1.48145962      19.05915785  T       0.09849747       1.20143552      -0.25018505
Si       0.47674693       2.68974566      16.89349253  T       0.02929582       0.87269326      -0.58813473
Si       4.95606870       1.56037747      17.63323343  T       0.68633934      -0.27419054       0.15163647
Si       5.95924714       3.73079353      19.66809937  T       0.04040682      -0.67310403      -1.25166014
Si       7.69621724       1.24976429      20.55001449  T       0.22724298       0.21706509      -0.25830664
Si       2.56431276       8.75532464      20.38135297  T      -0.28628862       0.36907899       1.29601456
Si       2.89947109       6.72460464      18.15344990  T      -1.08753063       0.25930586       0.27960136
Si       1.10260867       6.13267339      21.32490357  T       0.49122315      -0.12768809      -0.10468673
Si       0.14542618       5.55949098      18.38664128  T      -0.44926503      -0.01520979      -0.29103074
Si       6.10050799       9.23452636      22.47616310  T      -0.32000494       1.19085038      -0.04335591
Si       7.09718839       6.26242323      18.16576312  T      -0.94270033       0.02475455       0.71052465
Si       7.17973790       9.47420221      18.15566977  T       0.31237136      -0.08172925      -1.07442821
Si       2.10000000       3.98000000       2.32000000  F       0.00000000       0.00000000       0.00000000
Si       2.89819589       3.63522586       5.02238090  T      -1.50365911       0.14822729      -0.83814261
Si       0.89000000       1.15000000       1.77000000  F       0.00000000       0.00000000       0.00000000
Si       8.37396950       1.07691435       5.61232506  T       1.67679826       0.04877934       0.49895175
Si       5.51867539       1.98353794       4.42226412  T       1.09204514       0.30164739      -0.23952835
Si       4.81037527       5.81955254       6.13261078  T       0.17390893      -0.60150237       0.57738407
Si       0.06016076       9.13878614       3.96289181  T       0.06689192       1.74446909       0.42787576
Si       6.19196006       5.14608404       3.62689027  T       0.11561342      -1.16054672      -0.79963814
Si       5.42000000       9.77000000       2.06000000  F       0.00000000       0.00000000       0.00000000
Si       8.43692588       7.02600626       2.75323121  T       0.53017423      -0.31149361      -0.22070005
Si       3.70132353       4.27116791       9.92543156  T      -0.83108840       0.13529891      -0.33106516
Si       2.27641256       1.61835424       8.95959609  T      -1.38101066       0.50518003       0.16206857
Si       0.48086959       2.82119105       6.97169427  T       0.85862428      -0.28704466       1.25671344
Si       5.03132058       1.23027498       7.47259136  T       0.78570991       0.09485986      -0.06162568
Si       6.56647870       3.46739786       9.05833199  T       0.15808369       0.09122317       0.93137707
Si       7.91245711       0.96011095      10.47470384  T      -1.88215985      -0.65762994      -0.43313743
Si       3.54407952       8.22403956      10.42481578  T      -0.52425387      -0.55188803      -0.18877725
Si       2.95713866       6.89683718       8.02349908  T      -0.13970693      -0.37842668      -0.20793944
Si       0.91454471       6.43070493      11.02068155  T      -0.59756354      -0.90065928       0.31415946
Si       0.29787885       5.78664310       7.94839637  T      -0.00529851      -0.37242385      -0.32649299
Si       5.89156385       7.05741203      11.59908726  T      -0.37065997       0.37955962       0.84151203
Si       7.42122905       6.09211276       7.77865189  T      -0.49012518       0.15138853       0.04797964
Si       7.37389841       9.28546912       8.03912338  T      -0.09791183      -0.17715364      -0.00481125
Si       7.93000000       1.02000000       0.50000000  F       0.00000000       0.00000000       0.00000000
Si       0.91000000       6.44000000       0.98000000  F       0.00000000       0.00000000       0.00000000
Si       5.91000000       7.08000000       1.49000000  F       0.00000000       0.00000000       0.00000000
C        5.02404355       5.00640987      23.93635144  T       0.55772322      -0.26634932     -13.23986497
F        5.78142360       6.05794507      23.94255528  T      -0.22197769      -0.00353954     -20.79346180
F        5.78398078       3.94352890      23.94424049  T      -0.41190308       0.31653285     -20.76261427
153
Lattice="10.0 0.0 0.0 0.0 10.0 0.0 0.0 0.0 43.74" Properties=species:S:1:pos:R:3:move_mask:L:1:momenta:R:3 etch=trj_CF2_30eV_case1 idx=0 index=0 source=trj_CF2_30eV_case1/0000/OUTCAR converged=T time_fs=27.0 pbc="T T T"
O        2.19256869       4.63420722      13.87534392  T      -0.41813594       0.38657706       0.37255013
O        1.45830719       2.45847147      12.37731819  T      -0.47942749      -0.18558905      -1.62073207
O        3.84545666       2.59884864      14.26089673  T      -0.38836946      -0.97351080       0.44783344
O        3.75399534       4.53852500      16.11271542  T      -1.04633681      -1.01257365       0.14761064
O        1.72891440       2.89647295      15.87044761  T       1.22800234       0.14309694      -0.06434271
O        5.04931251       1.70060832      16.02161415  T      -0.20279215       0.57608053      -0.99261215
O        5.08186268       0.91854014      13.28354465  T      -1.28988826       0.94055404       0.47315553
O        6.15223757       3.61842004      14.04749146  T      -0.09001409       0.29877955      -0.12215766
O        7.09220305       1.43534675      14.71616935  T       0.48745815       0.97744856       0.74639797
O        9.00358573       2.30452617      16.39466032  T      -0.78193364       0.57808396       1.08070233
O        9.61467634       0.41242062      14.77524583  T       0.83112545       0.16422507       0.45684921
O        0.92266873       9.75749249      12.61176600  T       0.05631319       0.36474581      -0.39548603
O        1.11474160       8.21483831      14.64313341  T      -0.17877878      -0.82177822       0.67629339
O        9.96573658       6.93855254      12.20336015  T       1.30817198      -0.75567608       1.14705883
O        5.27738664       6.15171034      14.60750476  T       1.23977837      -0.78345718       0.55969249
O        5.65032872       5.55414093      12.14108488  T      -0.03587894      -0.80036514      -1.00061627
O        7.74735887       5.83594916      13.63399339  T      -0.56910501       0.33487261      -0.24920240
O        5.59033346       8.25083208      12.64207691  T       0.05477479      -0.69160940       0.88448878
O        8.62146132       8.36414222      13.62075901  T       0.13247522      -0.21267195      -0.28968182
O        2.43423645       5.15320077      21.48650553  T       0.14834565      -0.75170160      -0.19531091
O        0.20952677       6.15205363      22.73712285  T       0.45714574      -0.45643331      -1.07134041
O        1.87702814       0.18363637      20.05640402  T       0.29946336       0.62991060       0.76294237
O        2.25632732       2.90185305      19.94222116  T       0.68372545      -1.71579472      -0.17747525
O        3.44686656       1.29166595      18.21519129  T       0.16369069       0.28499682      -0.12783061
O        0.84352337       1.59085511      18.04915595  T      -0.92152605       0.64218208       0.27036658
O        0.40451767       4.06262576      17.78091066  T      -0.21560423      -0.47696476       0.36284768
O        9.09218691       1.37408403      21.43889716  T      -0.11971932       0.31665179       0.19939907
O        5.43827984       3.03688510      18.25942175  T       0.51631088       0.44368192      -0.69726063
O        4.66623685       3.93313941      20.64052872  T       0.34678602      -0.24075925       0.48087193
O        7.06688920       2.72987010      20.31792359  T      -0.03309347       0.40007112       0.86243995
O        6.44469599       0.49330525      21.46888934  T       0.62572095       0.32295373       0.67272327
O        6.61257037       5.23325116      19.37824549  T      -0.07440280       0.19395582      -0.20070975
O        7.93154948       9.80728365      16.73799455  T      -0.15803680       0.11856269       0.80930936
O        3.83539292       6.98076618      16.84227803  T       0.09485754      -0.45969485      -0.45689726
O        3.79837244       9.39615033      21.39937444  T       0.66043278      -0.35335784      -0.56184725
O        3.23859437       7.99672061      19.12370880  T       0.53891100       0.30228974      -0.00911851
O        1.27859596       6.65118583      17.73929465  T       0.73098262      -0.01218648       0.46496164
O        3.20514958       5.28545805      18.87387168  T       0.06083958       0.26126371       0.20861412
O        0.24521810       5.56941138      20.02337177  T      -1.66829934       0.18277518      -1.15969475
O        1.52477276       7.75482236      21.12984807  T       0.18802797       0.78064294       0.71340225
O        4.74207868       8.42441369      21.98426446  T      -1.59074003      -1.23851690       0.27981607
O        8.03925064       0.20133022      19.36052431  T       0.49484934       0.07750846      -0.04968227
O        6.88739746       8.81607084      23.69623829  T      -0.54310717      -0.45564861      -0.63286040
O        6.19672040       5.79778816      16.89598738  T      -0.56956752       0.39284416      -0.03253802
O        5.73986729       0.23643375      18.21361730  T      -0.39297924      -0.54355256       0.19603254
O        8.68060225       6.04266621      17.91912662  T       0.00964781       0.55677289       0.13520577
O        6.95976874       7.87160161      18.39857435  T      -0.35337604      -0.51509823       0.00821792
O        2.09713093       4.65590021       3.84418291  T      -1.06087556       0.05079029       0.40371999
O        1.51923724       2.47749052       2.28866140  T       0.64566456       0.50020993      -2.66495082
O        3.88558722       2.68241185       4.16804129  T      -0.36458745      -0.15257843      -0.22186984
O        3.77484190       4.56592506       6.13814551  T       1.38387969       0.55027600       0.13312311
O        1.64902445       2.94126637       5.79942984  T      -0.29863150       0.41986703      -0.23600880
O        4.89354595       1.32079505       5.87857127  T       0.60001076       0.02865306       0.61417162
O        5.20466659       0.89123864       3.18797967  T      -0.05914912       0.70715617      -0.45767306
O        6.18107960       3.59714340       4.05205590  T       0.19735241      -0.38167808      -0.15339886
O        7.07882590       1.50618707       4.77733443  T       0.28487862       1.66882521       1.08158329
O        9.08930542       2.32576363       6.35308453  T      -0.73631154      -1.39198330       0.25343262
O        9.64484307       0.55737068       4.65501805  T       0.36966728       1.19753628      -0.69901538
O        0.97729255       9.73915348       2.52323460  T       0.84298757      -0.55427523      -0.74593489
O        1.11880060       8.18076006       4.61579086  T       0.50403752      -1.75568888       0.79709933
O        9.87000000       6.98000000       2.02000000  F       0.00000000       0.00000000       0.00000000
O        5.27962665       6.06694831       4.60735771  T       1.15538480      -0.80664463       0.45403474
O        5.59000000       5.63000000       2.17000000  F       0.00000000       0.00000000       0.00000000
O        7.74210727       5.81916197       3.60298855  T      -0.49634592      -0.07609925      -0.23319112
O        5.59272387       8.25080581       2.51371968  T      -0.20496865      -0.42465262      -0.61632858
O        8.63628274       8.40028702       3.58180745  T       0.66265910       0.61167456      -0.18934696
O        3.47896743       4.15133888      11.51704895  T       0.11579387      -0.28051789       0.40635835
O        1.12128327       4.85935126      11.38680017  T      -0.26037802       0.06777171       0.36663970
O        1.74884566       0.88838222      10.32306639  T       0.49267504      -0.21273932      -1.11175622
O        2.72346880       3.12978661       9.28339017  T      -0.74195018       0.13627544      -0.47831244
O        3.62821638       1.02469022       8.22201885  T       1.05179262       0.40686460       0.36997478
O        0.97433668       1.60626967       7.96825767  T      -0.84539262      -0.05600865       0.22405348
O        0.44395713       4.18937082       7.85835470  T       0.16393745       0.09162448      -0.49189877
O        9.27171336       1.31320026      11.31461031  T       0.46168742      -0.14324609      -0.73002097
O        5.99543021       2.53939833       7.81235851  T       0.42629426      -0.26958701       0.24550756
O        5.25883636       4.07384138       9.79156781  T       0.02186956       0.29804701       0.83482843
O        7.42059201       2.46154334      10.03052082  T       0.54218753       0.09550997      -0.29853687
O        6.74592701       0.21484196      11.28398780  T      -0.08003434       0.63395067      -0.61041675
O        7.47245143       4.81625751       8.82482049  T      -0.33853998       0.03637694      -1.56401134
O        8.03928679       9.81218151       6.62707533  T      -0.55261489       0.53306458       0.75989177
O        4.05848634       7.08547666       6.86192150  T      -0.79612888       0.65746020       0.64202176
O        4.04614061       9.59706289      11.16064949  T       0.82836936       0.49198564      -0.62200212
O        3.04406229       8.29683866       8.84897289  T      -0.26756677      -0.33009666       0.36523848
O        1.54559101       6.58751151       7.34994867  T       0.17034109       0.04663172      -2.42144828
O        3.29636884       5.66464699       9.08055534  T      -0.70067952       0.61073043       0.44356591
O        0.13125202       6.36821587       9.51761532  T       0.07277801      -1.39582228      -0.40392950
O        2.30703089       7.38226010      11.14798361  T       0.97774402       0.23867983       0.32760619
O        4.94909228       7.34822460      10.35180148  T       0.36818740      -0.95412447       1.64152109
O        8.24495531       0.03046257       9.20350283  T       1.17985603      -0.06714753       0.86703665
O        7.49722006       7.18207593      11.29020751  T      -0.08360981      -0.36078722      -0.09629898
O        6.22212064       5.52641446       6.85586586  T       0.26731024       0.32105088      -0.34852771
O        5.81804596       9.86483644       7.97711281  T       0.36010154      -0.08864896      -0.43118068
O        8.93115863       6.10374843       7.17973713  T       1.07354140       0.49006086      -0.20480266
O        7.18906118       7.66334462       8.19189899  T      -0.68644865      -0.32508650       0.27719268
O        3.55000000       4.18000000       1.53000000  F       0.00000000       0.00000000       0.00000000
O        1.14000000       4.89000000       1.35000000  F       0.00000000       0.00000000       0.00000000
O        9.29000000       1.31000000       1.44000000  F       0.00000000       0.00000000       0.00000000
O        6.84000000       0.20000000       1.30000000  F       0.00000000       0.00000000       0.00000000
O        3.95000000       9.60000000       1.25000000  F       0.00000000       0.00000000       0.00000000
O        2.28000000       7.42000000       1.08000000  F       0.00000000       0.00000000       0.00000000
O        7.52000000       7.21000000       1.37000000  F       0.00000000       0.00000000       0.00000000
Si       2.10778660       3.96452650      12.35334235  T      -0.89441539       0.54658374       1.04049275
Si       2.90890653       3.63994278      15.02895168  T      -0.24491726       0.52528031      -0.68147653
Si       0.83129734       1.13148311      11.68515761  T      -0.69257764      -0.80668274      -1.19859340
Si       8.33772721       1.02251294      15.62298233  T       0.64464926       0.11256924       0.64478819
Si       5.54259537       2.07176068      14.44749835  T       1.29863821       1.05363843       0.56479308
Si       4.76294317       5.83428748      16.12006627  T       0.21110052      -1.37828224       0.50162716
Si       0.02078829       9.16412682      13.87873978  T       0.00489689       1.04948803      -0.58798764
Si       6.19780469       5.16156276      13.62052290  T       0.42550555      -0.79081380       0.36208958
Si       5.37626216       9.81965729      12.17584521  T      -1.26662059       2.07713871       1.09626856
Si       8.39502701       7.02905399      12.68571244  T       0.16562215      -0.18373578      -0.88208546
Si       3.13859441       4.30789567      20.22651338  T       1.32973934      -0.10304551       0.41766353
Si       2.10120175       1.48581684      19.05846523  T       0.10824822       1.28560495      -0.14707258
Si       0.47701640       2.69295070      16.89166388  T       0.12603607       0.95856597      -0.45845336
Si       4.95839804       1.55950119      17.63374514  T       0.64420342      -0.22670703       0.13743842
Si       5.95943248       3.72854325      19.66350307  T       0.06659878      -0.61211790      -1.37422069
Si       7.69689751       1.25035471      20.54944911  T       0.16259846       0.12089693      -0.06493181
Si       2.56338236       8.75669580      20.38601134  T      -0.24391263       0.41619132       1.36377335
Si       2.89547359       6.72550239      18.15428219  T      -1.19344314       0.25565306       0.19541218
Si       1.10426315       6.13232017      21.32467795  T       0.45285064      -0.07474489      -0.02841535
Si       0.14401138       5.55944403      18.38543168  T      -0.35973254      -0.01189809      -0.40262322
Si       6.09948907       9.23902126      22.47576012  T      -0.26804918       1.37551041      -0.18924696
Si       7.09387454       6.26239635      18.16826908  T      -0.95015115      -0.04061517       0.72006220
Si       7.18084730       9.47398572      18.15176875  T       0.32056747      -0.04402080      -1.15098814
Si       2.10000000       3.98000000       2.32000000  F       0.00000000       0.00000000       0.00000000
Si       2.89294052       3.63597007       5.01947376  T      -1.49700850       0.27852448      -0.82282510
Si       0.89000000       1.15000000       1.77000000  F       0.00000000       0.00000000       0.00000000
Si       8.37986700       1.07690016       5.61406784  T       1.68921135      -0.05850706       0.49606697
Si       5.52225553       1.98467080       4.42151053  T       0.95373322       0.34584697      -0.19006420
Si       4.81089307       5.81749333       6.13460061  T       0.12296082      -0.57020552       0.56066767
Si       0.06044283       9.14510858       3.96422922  T       0.10035298       1.86461781       0.33812327
Si       6.19242332       5.14202237       3.62426524  T       0.14879622      -1.16106843      -0.70065804
Si       5.42000000       9.77000000       2.06000000  F       0.00000000       0.00000000       0.00000000
Si       8.43867544       7.02494603       2.75244463  T       0.46887266      -0.29390514      -0.22786194
Si       3.69820001       4.27173800       9.92407549  T      -0.95409643       0.19030103      -0.44231113
Si       2.27162962       1.62006225       8.96017400  T      -1.34872576       0.46973459       0.16532330
Si       0.48417017       2.82011955       6.97614118  T       1.02259851      -0.32608591       1.28179395
Si       5.03428390       1.23048379       7.47237720  T       0.90901544       0.02488139      -0.05921235
Si       6.56703975       3.46762400       9.06167329  T       0.16130065       0.03832811       0.97760335
Si       7.90589048       0.95806735      10.47325432  T      -1.86618087      -0.50765084      -0.39533043
Si       3.54217142       8.22205570      10.42408909  T      -0.56219542      -0.58122744      -0.22563023
Si       2.95684655       6.89550383       8.02295472  T      -0.03192076      -0.38351227      -0.10354335
Si       0.91255359       6.42751567      11.02154271  T      -0.53784282      -0.92081827       0.17684333
Si       0.29772374       5.78540200       7.94760783  T      -0.07828770      -0.33460904      -0.12683942
Si       5.89033533       7.05871765      11.60193230  T      -0.32931927       0.36319469       0.78862960
Si       7.41957475       6.09261510       7.77892888  T      -0.45174114       0.13682789       0.10748172
Si       7.37332620       9.28497618       8.03893536  T      -0.22771713      -0.10430022      -0.09880843
Si       7.93000000       1.02000000       0.50000000  F       0.00000000       0.00000000       0.00000000
Si       0.91000000       6.44000000       0.98000000  F       0.00000000       0.00000000       0.00000000
Si       5.91000000       7.08000000       1.49000000  F       0.00000000       0.00000000       0.00000000
C        5.02797541       5.00420931      23.82803131  T       0.40022461      -0.26945686     -13.25000407
F        5.78046579       6.05801247      23.83505336  T      -0.14751291       0.03019281     -20.79130208
F        5.78204558       3.94507246      23.83690175  T      -0.33377165       0.27742165     -20.75879172
153
Lattice="10.0 0.0 0.0 0.0 10.0 0.0 0.0 0.0 43.74" Properties=species:S:1:pos:R:3:move_mask:L:1:momenta:R:3 etch=trj_CF2_30eV_case1 idx=0 index=0 source=trj_CF2_30eV_case1/0000/OUTCAR converged=T time_fs=28.0 pbc="T T T"
O        2.19009982       4.63623544      13.87752643  T      -0.38650751       0.27444045       0.33774562
O        1.45538173       2.45742450      12.36748927  T      -0.47256501      -0.15353806      -1.57986687
O        3.84305668       2.59309244      14.26350611  T      -0.39419778      -0.89926277       0.40180985
O        3.74771613       4.53235986      16.11361766  T      -0.99556690      -0.99186800       0.14750825
O        1.73617169       2.89721057      15.87005876  T       1.13117133       0.09559881      -0.05967970
O        5.04812200       1.70405748      16.01600738  T      -0.18491886       0.54650501      -0.82826866
O        5.07416693       0.92429117      13.28646026  T      -1.21528924       0.93208179       0.47600696
O        6.15167033       3.62016982      14.04669560  T      -0.09481088       0.26836754      -0.13635470
O        7.09545571       1.44127773      14.72071560  T       0.57207087       0.95378440       0.73378580
O        8.99865254       2.30810843      16.40112768  T      -0.82392358       0.58802227       1.02516751
O        9.61959471       0.41373724      14.77827524  T       0.77006335       0.26491761       0.53055879
O        0.92283825       9.75979618      12.60943192  T      -0.00104826       0.38439491      -0.36395945
O        1.11379535       8.20959211      14.64744838  T      -0.13198106      -0.88492273       0.72744924
O        9.97345241       6.93391247      12.21046643  T       1.20268965      -0.75494093       1.16780815
O        5.28494415       6.14668244      14.61091794  T       1.22042835      -0.85409993       0.55244914
O        5.65004418       5.54914988      12.13499711  T      -0.05512113      -0.82506314      -0.97844955
O        7.74390463       5.83800625      13.63234136  T      -0.55442449       0.33536945      -0.28902609
O        5.59067622       8.24692213      12.64795051  T       0.05624536      -0.57593738       1.02827766
O        8.62213167       8.36293329      13.61892853  T       0.08693380      -0.17998509      -0.30647013
O        2.43513039       5.14859690      21.48504258  T       0.14161891      -0.74706816      -0.28138021
O        0.21246259       6.14919957      22.73029230  T       0.49806697      -0.47332351      -1.15188866
O        1.87885004       0.18761422      20.06094415  T       0.29421704       0.66575137       0.71498809
O        2.26073826       2.89153631      19.94113708  T       0.75488401      -1.63765536      -0.17274786
O        3.44814053       1.29339882      18.21417887  T       0.25126092       0.27960179      -0.20233030
O        0.83791863       1.59462697      18.05081776  T      -0.90210479       0.58591665       0.27144653
O        0.40307858       4.06008537      17.78321018  T      -0.25293144      -0.34834482       0.38617773
O        9.09138385       1.37607119      21.44002861  T      -0.14174431       0.33069225       0.16921764
O        5.44153790       3.03940710      18.25521128  T       0.54462290       0.37686996      -0.67495852
O        4.66841099       3.93166573      20.64356277  T       0.36277790      -0.23958574       0.50604913
O        7.06677464       2.73229946      20.32314130  T      -0.00477435       0.39103263       0.83636710
O        6.44868192       0.49513959      21.47303771  T       0.67187172       0.27535501       0.67739176
O        6.61205872       5.23433895      19.37707139  T      -0.09317944       0.15849334      -0.18050342
O        7.93062720       9.80818192      16.74281963  T      -0.14044073       0.17495951       0.75820067
O        3.83593878       6.97792667      16.83956161  T       0.08130844      -0.46558329      -0.42628035
O        3.80229789       9.39399325      21.39582430  T       0.61765602      -0.34855253      -0.59430254
O        3.24185898       7.99855832      19.12365955  T       0.52282620       0.29640241      -0.00575081
O        1.28305023       6.65091458      17.74241227  T       0.71624279      -0.07662750       0.54940176
O        3.20558926       5.28691464      18.87546562  T       0.08254026       0.21216693       0.31128630
O        0.23511200       5.57064997      20.01645120  T      -1.61992047       0.22212196      -1.08811011
O        1.52587042       7.75923744      21.13425417  T       0.16849039       0.65483221       0.72228709
O        4.73223824       8.41671096      21.98598130  T      -1.60889289      -1.26761765       0.28120949
O        8.04228601       0.20184349      19.36019082  T       0.49240415       0.08937815      -0.05968334
O        6.88416051       8.81312979      23.69259294  T      -0.51079460      -0.50251885      -0.55346052
O        6.19327706       5.80010631      16.89590782  T      -0.54963879       0.36159589       0.00869468
O        5.73743078       0.23318426      18.21474862  T      -0.39982657      -0.51458916       0.17207489
O        8.68064381       6.04606612      17.91991404  T       0.00232106       0.55073468       0.12057013
O        6.95753531       7.86861509      18.39872626  T      -0.37405953      -0.45420244       0.04117948
O        2.09078504       4.65566172       3.84657830  T      -1.00625433      -0.12855514       0.37539812
O        1.52324469       2.48040031       2.27224865  T       0.65903472       0.44547337      -2.68080500
O        3.88322389       2.68161024       4.16673636  T      -0.40585495      -0.10773337      -0.20224175
O        3.78300989       4.56894823       6.13874022  T       1.27161363       0.42942140       0.05899945
O        1.64715659       2.94387840       5.79805601  T      -0.31081405       0.43012624      -0.21015906
O        4.89721495       1.32108142       5.88205218  T       0.59489210       0.06511571       0.51600170
O        5.20449522       0.89552952       3.18517526  T       0.00388487       0.68994827      -0.45553726
O        6.18227302       3.59478586       4.05093134  T       0.19106751      -0.38623752      -0.21347460
O        7.08101269       1.51627636       4.78399821  T       0.42913783       1.61567331       1.08926639
O        9.08465947       2.31752951       6.35476868  T      -0.76885587      -1.28387619       0.30013389
O        9.64696816       0.56465143       4.65065747  T       0.32362617       1.17312615      -0.72148775
O        0.98242798       9.73579071       2.51880637  T       0.82929045      -0.54046366      -0.69512197
O        1.12200028       8.16983786       4.62081363  T       0.53283617      -1.79654537       0.83560010
O        9.87000000       6.98000000       2.02000000  F       0.00000000       0.00000000       0.00000000
O        5.28669962       6.06210508       4.61000517  T       1.14757791      -0.77029208       0.40831873
O        5.59000000       5.63000000       2.17000000  F       0.00000000       0.00000000       0.00000000
O        7.73916743       5.81867245       3.60149929  T      -0.45935086      -0.08243094      -0.25237451
O        5.59140215       8.24800699       2.51037268  T      -0.22621727      -0.48400231      -0.47238874
O        8.64021088       8.40409127       3.58067720  T       0.61666164       0.62604200      -0.17924946
O        3.47976574       4.14959128      11.51971518  T       0.14226211      -0.28872207       0.46101296
O        1.11970048       4.85974438      11.38909076  T      -0.25497679       0.05916190       0.37936352
O        1.75180837       0.88698553      10.31629703  T       0.47038342      -0.24361203      -1.08936902
O        2.71900202       3.13090400       9.28048600  T      -0.71275080       0.22914493      -0.46753308
O        3.63426436       1.02730327       8.22447068  T       0.91456196       0.44523876       0.43006097
O        0.96918957       1.60600826       7.96959434  T      -0.83016796      -0.03039395       0.21201484
O        0.44499479       4.18964826       7.85523660  T       0.17403305      -0.00188580      -0.52311142
O        9.27430508       1.31222800      11.31007127  T       0.37879083      -0.17366376      -0.74964916
O        5.99807492       2.53790203       7.81401843  T       0.43566166      -0.21683681       0.29615728
O        5.25917181       4.07555459       9.79659945  T       0.08622410       0.25981452       0.80330076
O        7.42382357       2.46220256      10.02858178  T       0.51049384       0.11947507      -0.33244146
O        6.74501648       0.21860622      11.28060032  T      -0.22113099       0.59019537      -0.48928457
O        7.47040992       4.81644735       8.81529041  T      -0.32614602       0.02318134      -1.53760218
O        8.03603507       9.81546535       6.63163776  T      -0.50484409       0.53659469       0.72367636
O        4.05391765       7.08925674       6.86554409  T      -0.68768888       0.57162704       0.53450200
O        4.05120381       9.60018542      11.15686590  T       0.81994779       0.52341559      -0.61110723
O        3.04238023       8.29490052       8.85140667  T      -0.28047787      -0.30105694       0.42653971
O        1.54651986       6.58782851       7.33481660  T       0.13157484       0.05495227      -2.50341199
O        3.29203253       5.66816358       9.08337065  T      -0.71159450       0.53329964       0.47398728
O        0.13202309       6.35963689       9.51533322  T       0.17885862      -1.39744898      -0.33714065
O        2.31276529       7.38358448      11.14999758  T       0.88579140       0.19011376       0.32926993
O        4.95117510       7.34228655      10.36161539  T       0.30478932      -0.97722996       1.54994591
O        8.25223902       0.02974873       9.20863904  T       1.19046569      -0.16804949       0.80189465
O        7.49690497       7.17984234      11.28985656  T      -0.01823062      -0.36635221      -0.01837827
O        6.22375105       5.52843055       6.85370936  T       0.26377064       0.33579480      -0.35362413
O        5.82045633       9.86427540       7.97455332  T       0.42451764      -0.09445176      -0.40179675
O        8.93753504       6.10692307       7.17816814  T       0.99739093       0.54459607      -0.30572828
O        7.18489126       7.66136386       8.19363881  T      -0.67139521      -0.31858622       0.28957856
O        3.55000000       4.18000000       1.53000000  F       0.00000000       0.00000000       0.00000000
O        1.14000000       4.89000000       1.35000000  F       0.00000000       0.00000000       0.00000000
O        9.29000000       1.31000000       1.44000000  F       0.00000000       0.00000000       0.00000000
O        6.84000000       0.20000000       1.30000000  F       0.00000000       0.00000000       0.00000000
O        3.95000000       9.60000000       1.25000000  F       0.00000000       0.00000000       0.00000000
O        2.28000000       7.42000000       1.08000000  F       0.00000000       0.00000000       0.00000000
O        7.52000000       7.21000000       1.37000000  F       0.00000000       0.00000000       0.00000000
Si       2.10450124       3.96650760      12.35700086  T      -0.98237842       0.58403472       1.04904445
Si       2.90801776       3.64184255      15.02656574  T      -0.26183881       0.55902798      -0.68375547
Si       0.82903115       1.12857280      11.68083492  T      -0.60148611      -0.85640401      -1.27472871
Si       8.33995461       1.02270678      15.62532827  T       0.62979046      -0.00057351       0.69728009
Si       5.54691138       2.07541559      14.44947397  T       1.16821399       1.03616484       0.56394893
Si       4.76364834       5.82949933      16.12173158  T       0.18915724      -1.36021982       0.44966555
Si       0.02087670       9.16781912      13.87647794  T       0.04762593       1.05842102      -0.70397223
Si       6.19934101       5.15896795      13.62191596  T       0.45166904      -0.68962166       0.42930257
Si       5.37187643       9.82688017      12.17946763  T      -1.23937548       2.04744966       0.97450770
Si       8.39570797       7.02838287      12.68259261  T       0.22436877      -0.20041471      -0.90089899
Si       3.14302894       4.30741115      20.22790913  T       1.20374380      -0.17574414       0.37826975
Si       2.10158572       1.49042453      19.05812021  T       0.11001029       1.34429870      -0.05206827
Si       0.47763332       2.69644124      16.89028004  T       0.22713826       1.03569934      -0.33390173
Si       4.96056704       1.55879235      17.63417569  T       0.59490500      -0.17859061       0.10576032
Si       5.95971853       3.72652007      19.65850231  T       0.09785150      -0.54355253      -1.48254468
Si       7.69735968       1.25061257      20.54955914  T       0.10257553       0.02711677       0.12737991
Si       2.56261636       8.75824219      20.39086870  T      -0.19262432       0.46904650       1.40975076
Si       2.89115316       6.72640155      18.15481319  T      -1.27176094       0.25987631       0.10793134
Si       1.10576582       6.13214730      21.32468082  T       0.40486293      -0.02477434       0.02591940
Si       0.14290903       5.55940702      18.38381525  T      -0.27095413      -0.00925868      -0.52304390
Si       6.09860309       9.24412263      22.47483049  T      -0.24339272       1.53695266      -0.34317180
Si       7.09055477       6.26213725      18.17078613  T      -0.94602638      -0.10769239       0.71698271
Si       7.18197113       9.47388306      18.14765063  T       0.32041499      -0.01656297      -1.19831134
Si       2.10000000       3.98000000       2.32000000  F       0.00000000       0.00000000       0.00000000
Si       2.88774993       3.63717922       5.01663291  T      -1.46697712       0.41348336      -0.80048018
Si       0.89000000       1.15000000       1.77000000  F       0.00000000       0.00000000       0.00000000
Si       8.38574870       1.07649611       5.61578605  T       1.66802428      -0.17398353       0.48498478
Si       5.52533973       1.98595490       4.42094172  T       0.80902597       0.38800567      -0.13411434
Si       4.81124132       5.81559633       6.13653263  T       0.07741789      -0.50933829       0.54394313
Si       0.06089604       9.15179183       3.96526345  T       0.16425369       1.95071539       0.25428562
Si       6.19299796       5.13796846       3.62199288  T       0.17930624      -1.15603649      -0.59830172
Si       5.42000000       9.77000000       2.06000000  F       0.00000000       0.00000000       0.00000000
Si       8.44019780       7.02395561       2.75164437  T       0.40040969      -0.27154516      -0.22857205
Si       3.69465770       4.27249605       9.92235165  T      -1.06974729       0.24254601      -0.54072408
Si       2.26700825       1.62163129       8.96073491  T      -1.28902014       0.42630687       0.15247686
Si       0.48798595       2.81890798       6.98063392  T       1.15305227      -0.36704377       1.28268600
Si       5.03767869       1.23045164       7.47218657  T       1.03191751      -0.04270608      -0.04821165
Si       6.56759886       3.46766825       9.06515985  T       0.15707247      -0.01247220       1.01427321
Si       7.89944096       0.95657723      10.47193961  T      -1.81572778      -0.34190146      -0.35650701
Si       3.54017450       8.21998226      10.42324530  T      -0.57499567      -0.60291454      -0.25534847
Si       2.95688759       6.89415733       8.02277215  T       0.05049867      -0.38601926      -0.00158149
Si       0.91079950       6.42427696      11.02191250  T      -0.46258897      -0.92896317       0.03400313
Si       0.29736066       5.78431676       7.94749312  T      -0.12440600      -0.28378818       0.05816888
Si       5.88927506       7.05993103      11.60462424  T      -0.27447524       0.32716956       0.75451102
Si       7.41809190       6.09307573       7.77938642  T      -0.39254266       0.12763100       0.15117093
Si       7.37231603       9.28474070       8.03845481  T      -0.34792468      -0.03038896      -0.17216520
Si       7.93000000       1.02000000       0.50000000  F       0.00000000       0.00000000       0.00000000
Si       0.91000000       6.44000000       0.98000000  F       0.00000000       0.00000000       0.00000000
Si       5.91000000       7.08000000       1.49000000  F       0.00000000       0.00000000       0.00000000
C        5.03055021       5.00203591      23.71964112  T       0.22727536      -0.25957781     -13.25670978
F        5.77990406       6.05825902      23.72756032  T      -0.06944399       0.06500579     -20.79007018
F        5.78055198       3.94637300      23.72958379  T      -0.24168974       0.22313598     -20.75459416
153
Lattice="10.0 0.0 0.0 0.0 10.0 0.0 0.0 0.0 43.74" Properties=species:S:1:pos:R:3:move_mask:L:1:momenta:R:3 etch=trj_CF2_30eV_case1 idx=0 index=0 source=trj_CF2_30eV_case1/0000/OUTCAR converged=T time_fs=29.0 pbc="T T T"
O        2.18781809       4.63758172      13.87948507  T      -0.35728893       0.16470284       0.29977661
O        1.45251371       2.45660412      12.35793049  T      -0.46091015      -0.11214120      -1.53290574
O        3.84060890       2.58782949      14.26582726  T      -0.40384831      -0.81302523       0.35404418
O        3.74180600       4.52638422      16.11453890  T      -0.92639308      -0.95111972       0.15375624
O        1.74275653       2.89763184      15.86974035  T       1.00952914       0.04031284      -0.04171802
O        5.04704340       1.70730956      16.01149444  T      -0.16624506       0.51205566      -0.63751571
O        5.06695742       0.92997690      13.28938303  T      -1.13160288       0.91923199       0.47543207
O        6.15107309       3.62168727      14.04582461  T      -0.09975629       0.22335034      -0.14666884
O        7.09922421       1.44705091      14.72517105  T       0.65492431       0.92621571       0.71671414
O        8.99348316       2.31173905      16.40724081  T      -0.85836110       0.59404426       0.96562811
O        9.62412476       0.41567177      14.78176274  T       0.70520263       0.36466721       0.60536139
O        0.92265719       9.76219975      12.60730480  T      -0.05771609       0.39739149      -0.32831591
O        1.11309461       8.20399641      14.65204600  T      -0.09891079      -0.93547922       0.76826644
O        9.98048195       6.92929059      12.21769634  T       1.08542218      -0.75000487       1.18673662
O        5.29235489       6.14122699      14.61429144  T       1.19193340      -0.92252267       0.54681439
O        5.64966902       5.54401563      12.12911077  T      -0.06544308      -0.84675873      -0.93524826
O        7.74056827       5.84006845      13.63044409  T      -0.53075969       0.33650879      -0.32901320
O        5.59101835       8.24381622      12.65469458  T       0.05471915      -0.43102154       1.16751678
O        8.62254001       8.36194412      13.61699729  T       0.04722872      -0.14107145      -0.32249661
O        2.43596251       5.14403748      21.48305032  T       0.12819451      -0.73719251      -0.36749476
O        0.21562974       6.14624129      22.72299972  T       0.53228383      -0.49038616      -1.22145956
O        1.88064293       0.19180854      20.06517374  T       0.29004147       0.70019875       0.66197295
O        2.26561270       2.88181681      19.94012998  T       0.83441120      -1.52162732      -0.15239474
O        3.44994688       1.29510056      18.21270561  T       0.33625355       0.27490727      -0.27747167
O        0.83246818       1.59804442      18.05249393  T      -0.87128629       0.52692639       0.27505223
O        0.40141529       4.05836785      17.78565075  T      -0.28848595      -0.20959140       0.40854938
O        9.09044853       1.37814472      21.44097593  T      -0.16266959       0.34477347       0.13951615
O        5.44496332       3.04150327      18.25112706  T       0.57084571       0.30513178      -0.65617587
O        4.67070404       3.93019456      20.64672670  T       0.38532190      -0.23992925       0.52298144
O        7.06682469       2.73466858      20.32818448  T       0.02048897       0.38038815       0.80558645
O        6.45293717       0.49669563      21.47719366  T       0.71343054       0.23257939       0.67504308
O        6.61141757       5.23517908      19.37604148  T      -0.11645288       0.11353614      -0.15383490
O        7.92984484       9.80944013      16.74726164  T      -0.11251772       0.23558203       0.68473248
O        3.83637507       6.97504623      16.83706002  T       0.05929965      -0.47302789      -0.38715425
O        3.80595114       9.39187817      21.39208108  T       0.57197415      -0.33970594      -0.62458545
O        3.24499649       8.00036023      19.12364972  T       0.49750358       0.29053637       0.00362285
O        1.28735160       6.65024117      17.74602703  T       0.68108391      -0.14301661       0.62665559
O        3.20616414       5.28805498      18.87769803  T       0.10478407       0.15875267       0.41605119
O        0.22536476       5.57215221      20.01007395  T      -1.55180746       0.26843265      -0.98362006
O        1.52683280       7.76283869      21.13871994  T       0.14433497       0.51629683       0.73262601
O        4.72238170       8.40888031      21.98773415  T      -1.59641420      -1.28009479       0.29126992
O        8.04528123       0.20242496      19.35978492  T       0.48177891       0.09981983      -0.07308241
O        6.88112777       8.80990106      23.68944915  T      -0.47722535      -0.54900492      -0.47048929
O        6.18999538       5.80222106      16.89611412  T      -0.51718914       0.32660547       0.06032162
O        5.73496763       0.23011868      18.21572595  T      -0.40153922      -0.48372452       0.14588930
O        8.68061534       6.04942837      17.92059979  T      -0.01302429       0.54449464       0.10211660
O        6.95517699       7.86605848      18.39907868  T      -0.39402298      -0.37556948       0.07345209
O        2.08477501       4.65432275       3.84878051  T      -0.95162614      -0.30733370       0.34083394
O        1.52732258       2.48293950       2.25575132  T       0.66874528       0.37978861      -2.69254711
O        3.88059852       2.68109673       4.16556732  T      -0.44979735      -0.05885202      -0.17772614
O        3.79040536       4.57114955       6.13885570  T       1.13287522       0.28336340      -0.02257358
O        1.64519908       2.94653906       5.79686235  T      -0.32759402       0.43575630      -0.17750531
O        4.90084771       1.32159863       5.88487302  T       0.58820999       0.10366840       0.39998221
O        5.20471974       0.89970440       3.18239016  T       0.06975970       0.66950513      -0.45126683
O        6.18342223       3.59240086       4.04942962  T       0.18295238      -0.39073525      -0.27615678
O        7.08410709       1.52600588       4.79070876  T       0.57950776       1.55197121       1.09646210
O        9.07994739       2.31006292       6.35681936  T      -0.75830227      -1.14239461       0.37255035
O        9.64882792       0.57176525       4.64615883  T       0.28330658       1.14330079      -0.74394236
O        0.98746931       9.73252455       2.51471355  T       0.81236223      -0.52274000      -0.63679030
O        1.12528993       8.15875730       4.62601686  T       0.53380928      -1.80758440       0.85615890
O        9.87000000       6.98000000       2.02000000  F       0.00000000       0.00000000       0.00000000
O        5.29370613       6.05749749       4.61237207  T       1.13363454      -0.72992673       0.36288973
O        5.59000000       5.63000000       2.17000000  F       0.00000000       0.00000000       0.00000000
O        7.73648645       5.81815883       3.59988560  T      -0.41214651      -0.08406059      -0.27364239
O        5.58993973       8.24489544       2.50793413  T      -0.25078830      -0.52631064      -0.32065130
O        8.64385287       8.40795898       3.57960248  T       0.56964807       0.63244287      -0.17120550
O        3.48069375       4.14779446      11.52269645  T       0.15803993      -0.29648935       0.50871871
O        1.11815433       4.86006693      11.39145614  T      -0.24856190       0.04493674       0.39089657
O        1.75460122       0.88537677      10.30973020  T       0.43749836      -0.28182473      -1.04598951
O        2.71471891       3.13261149       9.27765039  T      -0.68247073       0.32783150      -0.45616529
O        3.63941373       1.03016526       8.22731014  T       0.76031240       0.48772755       0.49561572
O        0.96415542       1.60588243       7.97086902  T      -0.80843843      -0.01208353       0.20413851
O        0.44609316       4.18934583       7.85194024  T       0.18363561      -0.09633742      -0.54968980
O        9.27632933       1.31106622      11.30539597  T       0.27755003      -0.20491935      -0.77411697
O        6.00078308       2.53674404       7.81600322  T       0.44675512      -0.15977969       0.35105273
O        5.25987933       4.07703034       9.80142282  T       0.14237535       0.22088505       0.76716738
O        7.42686114       2.46301168      10.02644659  T       0.47916587       0.14410765      -0.36225078
O        6.74317062       0.22207049      11.27801428  T      -0.38359750       0.53679395      -0.35022374
O        7.46845032       4.81651852       8.80596945  T      -0.31183014      -0.00231479      -1.49589034
O        8.03310550       9.81876863       6.63593538  T      -0.44782841       0.53918304       0.67389330
O        4.05008366       7.09247501       6.86845239  T      -0.55763011       0.47498092       0.41015194
O        4.05619733       9.60347092      11.15313904  T       0.80551832       0.54492181      -0.60363720
O        3.04061692       8.29314321       8.85419789  T      -0.29409365      -0.27135806       0.48130644
O        1.54720237       6.58816976       7.31925670  T       0.09057728       0.05466946      -2.56049809
O        3.28763368       5.67118238       9.08637861  T      -0.72115353       0.44906603       0.50602859
O        0.13345182       6.35107054       9.51349814  T       0.28680064      -1.39171204      -0.25858063
O        2.31786426       7.38456918      11.15203475  T       0.77124499       0.12834645       0.33508558
O        4.95277997       7.33625522      10.37077882  T       0.21285973      -0.98464253       1.42994348
O        8.25954863       0.02837525       9.21331074  T       1.18826505      -0.28134830       0.71662773
O        7.49700247       7.17758235      11.28997675  T       0.05040383      -0.36935758       0.05688909
O        6.22535891       5.53053867       6.85152714  T       0.25991589       0.35102678      -0.35690582
O        5.82325018       9.86367429       7.97218675  T       0.48450156      -0.10148438      -0.36842173
O        8.94334679       6.11043985       7.17599021  T       0.89056700       0.60134180      -0.40290732
O        7.18082221       7.65944888       8.19545485  T      -0.65363859      -0.30364435       0.30201029
O        3.55000000       4.18000000       1.53000000  F       0.00000000       0.00000000       0.00000000
O        1.14000000       4.89000000       1.35000000  F       0.00000000       0.00000000       0.00000000
O        9.29000000       1.31000000       1.44000000  F       0.00000000       0.00000000       0.00000000
O        6.84000000       0.20000000       1.30000000  F       0.00000000       0.00000000       0.00000000
O        3.95000000       9.60000000       1.25000000  F       0.00000000       0.00000000       0.00000000
O        2.28000000       7.42000000       1.08000000  F       0.00000000       0.00000000       0.00000000
O        7.52000000       7.21000000       1.37000000  F       0.00000000       0.00000000       0.00000000
Si       2.10092675       3.96859831      12.36066523  T      -1.05950447       0.60915270       1.04373426
Si       2.90708326       3.64384072      15.02416441  T      -0.27118930       0.58139892      -0.69005609
Si       0.82709953       1.12550008      11.67623342  T      -0.50165696      -0.89926638      -1.35771261
Si       8.34213672       1.02251680      15.62786328  T       0.61871737      -0.10652182       0.75295663
Si       5.55076099       2.07900693      14.45143793  T       1.03228681       1.01713112       0.55833877
Si       4.76424958       5.82477047      16.12320666  T       0.15192086      -1.34426242       0.39313699
Si       0.02113172       9.17151101      13.87382619  T       0.09975404       1.04958856      -0.81018838
Si       6.20095664       5.15675704      13.62349572  T       0.47101337      -0.57184124       0.46897913
Si       5.36760302       9.83394763      12.18265936  T      -1.20273513       1.98893519       0.85045273
Si       8.39659953       7.02765016      12.67941782  T       0.28592572      -0.21884994      -0.91317473
Si       3.14700276       4.30665745      20.22914742  T       1.06693021      -0.25659012       0.32794136
Si       2.10196485       1.49519051      19.05808849  T       0.10590650       1.37587491       0.03149979
Si       0.47860504       2.70018449      16.88932208  T       0.32807363       1.10286507      -0.21497702
Si       4.96255317       1.55825181      17.63446905  T       0.53992473      -0.13061337       0.05955855
Si       5.96012165       3.72474744      19.65315040  T       0.13341833      -0.46920098      -1.57470189
Si       7.69762028       1.25054823      20.55033574  T       0.04737094      -0.06314689       0.31568496
Si       2.56204240       8.75998146      20.39584875  T      -0.13453979       0.52618213       1.43400734
Si       2.88661015       6.72732730      18.15503726  T      -1.32037214       0.27056862       0.02053318
Si       1.10708745       6.13214241      21.32483511  T       0.34982678       0.02111822       0.05816816
Si       0.14211314       5.55938015      18.38176738  T      -0.18485010      -0.00580454      -0.64857417
Si       6.09776077       9.24974288      22.47335915  T      -0.24228994       1.67156937      -0.49753077
Si       7.08726994       6.26164335      18.17327145  T      -0.93017392      -0.17448153       0.70210661
Si       7.18307837       9.47385929      18.14341959  T       0.31092558       0.00123763      -1.21547695
Si       2.10000000       3.98000000       2.32000000  F       0.00000000       0.00000000       0.00000000
Si       2.88270228       3.63886393       5.01388094  T      -1.41570937       0.54986006      -0.77214312
Si       0.89000000       1.15000000       1.77000000  F       0.00000000       0.00000000       0.00000000
Si       8.39150037       1.07567569       5.61745209  T       1.61540035      -0.29624696       0.46641716
Si       5.52791111       1.98738195       4.42057805  T       0.66108396       0.42747728      -0.07300463
Si       4.81144285       5.81395881       6.13840323  T       0.03937672      -0.42262492       0.52517053
Si       0.06162167       9.15871650       3.96601303  T       0.25547431       2.00272840       0.17510261
Si       6.19367473       5.13394248       3.62008184  T       0.20723435      -1.14500433      -0.49438352
Si       5.42000000       9.77000000       2.06000000  F       0.00000000       0.00000000       0.00000000
Si       8.44146947       7.02305200       2.75085252  T       0.32571477      -0.24421905      -0.22311828
Si       3.69072979       4.27343022       9.92031075  T      -1.17386095       0.29078019      -0.62303688
Si       2.26264037       1.62303910       8.96122389  T      -1.20424426       0.37815128       0.12439020
Si       0.49219872       2.81755068       6.98508608  T       1.24967529      -0.40927619       1.25848161
Si       5.04149849       1.23018896       7.47204893  T       1.15147416      -0.10672846      -0.02902130
Si       6.56813096       3.46754088       9.06875675  T       0.14596803      -0.05949558       1.04056490
Si       7.89322346       0.95568799      10.47075926  T      -1.73425907      -0.16499795      -0.31885957
Si       3.53817659       8.21784770      10.42231300  T      -0.56290570      -0.61603787      -0.27586320
Si       2.95717097       6.89280612       8.02293786  T       0.10660642      -0.38624920       0.09507121
Si       0.90933133       6.42103055      11.02177959  T      -0.37493894      -0.92526290      -0.10971864
Si       0.29688115       5.78342790       7.94799488  T      -0.14529578      -0.22292728       0.22502936
Si       5.88842958       7.06098728      11.60723336  T      -0.20668299       0.27388193       0.74164046
Si       7.41684870       6.09351416       7.77996886  T      -0.31526268       0.12418042       0.17890992
Si       7.37090549       9.28476206       8.03775286  T      -0.45622509       0.04210738      -0.22560332
Si       7.93000000       1.02000000       0.50000000  F       0.00000000       0.00000000       0.00000000
Si       0.91000000       6.44000000       0.98000000  F       0.00000000       0.00000000       0.00000000
Si       5.91000000       7.08000000       1.49000000  F       0.00000000       0.00000000       0.00000000
C        5.03167270       4.99999661      23.61121372  T       0.04647500      -0.23687016     -13.25900467
F        5.77974777       6.05868015      23.62007099  T       0.00868366       0.09703324     -20.78986102
F        5.77956308       3.94736141      23.62228866  T      -0.13929951       0.15751247     -20.74987437
153
Lattice="10.0 0.0 0.0 0.0 10.0 0.0 0.0 0.0 43.74" Properties=species:S:1:pos:R:3:move_mask:L:1:momenta:R:3 etch=trj_CF2_30eV_case1 idx=0 index=0 source=trj_CF2_30eV_case1/0000/OUTCAR converged=T time_fs=30.0 pbc="T T T"
O        2.18570685       4.63826522      13.88120303  T      -0.33107217       0.05880078       0.25951602
O        1.44972922       2.45606135      12.34867640  T      -0.44557684      -0.06353437      -1.48079546
O        3.83809147       2.58313012      14.26785124  T      -0.41677665      -0.71588141       0.30512440
O        3.73637272       4.52071602      16.11551711  T      -0.84061821      -0.89210707       0.16595966
O        1.74852685       2.89769373      15.86956826  T       0.86655581      -0.02113470      -0.01243027
O        5.04608320       1.71033763      16.00821689  T      -0.14624565       0.47372520      -0.42715383
O        5.06028803       0.93556956      13.29229101  T      -1.03947612       0.90170013       0.47113295
O        6.15044546       3.62288769      14.04490145  T      -0.10466787       0.16550683      -0.15344195
O        7.10348847       1.45264517      14.72950668  T       0.73301411       0.89567985       0.69466774
O        8.98813218       2.31539746      16.41298034  T      -0.88261064       0.59729150       0.90377899
O        9.62825262       0.41820463      14.78570335  T       0.63962141       0.45899814       0.67745307
O        0.92213265       9.76466430      12.60540575  T      -0.11276363       0.40440187      -0.28993247
O        1.11255376       8.19813053      14.65686149  T      -0.07992065      -0.97286639       0.79838632
O        9.98676616       6.92470843      12.22502888  T       0.96069892      -0.74227193       1.20064109
O        5.29956226       6.13536106      14.61763590  T       1.15416335      -0.98760648       0.54302865
O        5.64925702       5.53876076      12.12355029  T      -0.06721074      -0.86410802      -0.87266537
O        7.73740390       5.84213914      13.62830184  T      -0.49848179       0.33809269      -0.36874813
O        5.59134394       8.24167160      12.66227214  T       0.05101526      -0.26420391       1.29920595
O        8.62272367       8.36121292      13.61497002  T       0.01381186      -0.09597887      -0.33776226
O        2.43669181       5.13955510      21.48053254  T       0.10814146      -0.72196084      -0.45232789
O        0.21898343       6.14317767      22.71531888  T       0.55860901      -0.50764862      -1.27797641
O        1.88241376       0.19620710      20.06906487  T       0.28704661       0.73206643       0.60492800
O        2.27099706       2.87292000      19.93929532  T       0.92068704      -1.37021672      -0.11668098
O        3.45225572       1.29677635      18.21077542  T       0.41411066       0.27120507      -0.35070533
O        0.82724140       1.60109406      18.05420003  T      -0.82931576       0.46631734       0.28119070
O        0.39954114       4.05752397      17.78822242  T      -0.32147804      -0.06448971       0.42863133
O        9.08938983       1.38030460      21.44174371  T      -0.18180825       0.35880097       0.11083643
O        5.44854355       3.04314630      18.24714718  T       0.59506895       0.22946374      -0.64093785
O        4.67315281       3.92871744      20.64996748  T       0.41327436      -0.24138778       0.53104300
O        7.06702012       2.73696656      20.33302404  T       0.04254874       0.36781153       0.77008334
O        6.45743324       0.49800753      21.48131170  T       0.75030290       0.19608602       0.66491013
O        6.61062163       5.23571777      19.37519373  T      -0.14344652       0.06060919      -0.12128002
O        7.92926435       9.81108014      16.75118764  T      -0.07482810       0.29905102       0.59049785
O        3.83665221       6.97211537      16.83482142  T       0.02962759      -0.48199583      -0.34087437
O        3.80931796       9.38982935      21.38816076  T       0.52458574      -0.32701165      -0.65182807
O        3.24795020       8.00212495      19.12371435  T       0.46296609       0.28420169       0.01836460
O        1.29137366       6.64915659      17.75009079  T       0.62525796      -0.21037884       0.69543963
O        3.20687596       5.28886100      18.88057267  T       0.12704706       0.10378598       0.51993388
O        0.21609070       5.57395710      20.00442606  T      -1.46621423       0.32048035      -0.85161022
O        1.52763794       7.76556082      21.14325061  T       0.11769510       0.36927461       0.74318113
O        4.71268944       8.40102525      21.98957143  T      -1.55591304      -1.27556342       0.30842845
O        8.04818639       0.20306751      19.35928890  T       0.46310498       0.10938386      -0.08883766
O        6.87829635       8.80639299      23.68681214  T      -0.44586215      -0.59314398      -0.38938853
O        6.18694703       5.80410981      16.89666547  T      -0.47401916       0.28800115       0.12076820
O        5.73251109       0.22724740      18.21653592  T      -0.39759634      -0.45136524       0.11757207
O        8.68047020       6.05275152      17.92116105  T      -0.03549080       0.53797744       0.08007309
O        6.95269877       7.86403147      18.39962618  T      -0.41309136      -0.28234236       0.10468524
O        2.07909821       4.65189274       3.85075189  T      -0.89787727      -0.48360457       0.30024191
O        1.53145087       2.48504636       2.23919399  T       0.67563511       0.30504086      -2.70038294
O        3.87769733       2.68089392       4.16456200  T      -0.49552146      -0.00667350      -0.14906408
O        3.79687726       4.57238849       6.13845287  T       0.97157282       0.11691128      -0.10945487
O        1.64312791       2.94922085       5.79588725  T      -0.34754547       0.43708676      -0.13920748
O        4.90443476       1.32235652       5.88693849  T       0.58001520       0.14333622       0.27088919
O        5.20535667       0.90374573       3.17963939  T       0.13816987       0.64659305      -0.44423644
O        6.18451605       3.58998688       4.04753648  T       0.17303303      -0.39579758      -0.34086817
O        7.08812950       1.53531671       4.79745716  T       0.73037959       1.47966378       1.10122779
O        9.07542457       2.30355977       6.35938847  T      -0.70799934      -0.97082187       0.46846792
O        9.65045842       0.57868140       4.64152316  T       0.24896655       1.10890470      -0.76605204
O        0.99239720       9.72938012       2.51100014  T       0.79237371      -0.50073885      -0.57169137
O        1.12850680       8.14769586       4.63129511  T       0.50966868      -1.79070977       0.86035167
O        9.87000000       6.98000000       2.02000000  F       0.00000000       0.00000000       0.00000000
O        5.30060697       6.05314940       4.61446416  T       1.11307099      -0.68581556       0.31902432
O        5.59000000       5.63000000       2.17000000  F       0.00000000       0.00000000       0.00000000
O        7.73412463       5.81764797       3.59813616  T      -0.35557245      -0.08167786      -0.29649235
O        5.58831660       8.24157854       2.50644755  T      -0.27852742      -0.55082805      -0.16256964
O        8.64720575       8.41184294       3.57857150  T       0.52267281       0.63145634      -0.16495434
O        3.48168605       4.14595214      11.52594596  T       0.16325055      -0.30347750       0.54817649
O        1.11664900       4.86028710      11.39388726  T      -0.24181309       0.02599619       0.40067149
O        1.75716199       0.88351112      10.30349080  T       0.39499453      -0.32723747      -0.98303002
O        2.71062035       3.13493362       9.27488390  T      -0.65297650       0.42867146      -0.44519946
O        3.64358070       1.03329770       8.23056031  T       0.59582966       0.53311471       0.56320334
O        0.95927666       1.60584351       7.97211175  T      -0.77940323      -0.00229635       0.20187043
O        0.44724787       4.18847329       7.84849855  T       0.19229733      -0.18663694      -0.57018693
O        9.27768591       1.30971075      11.30055960  T       0.16213307      -0.23670773      -0.80180149
O        6.00356176       2.53594415       7.81833421  T       0.45840405      -0.10060503       0.40863015
O        5.26089767       4.07826741       9.80601257  T       0.18689097       0.18223279       0.72736754
O        7.42970970       2.46397099      10.02414332  T       0.44908108       0.16817496      -0.38702796
O        6.74027774       0.22518544      11.27632443  T      -0.56087382       0.47708256      -0.19839410
O        7.46658494       4.81639540       8.79695120  T      -0.29541950      -0.04005142      -1.43906134
O        8.03055204       9.82208201       6.63988962  T      -0.38252672       0.53965963       0.61215804
O        4.04710277       7.09507369       6.87055697  T      -0.41074208       0.37029764       0.27360856
O        4.06108183       9.60685624      11.14944618  T       0.78429120       0.55583727      -0.60011013
O        3.03876709       8.29156803       8.85730043  T      -0.30871313      -0.24189534       0.52760046
O        1.54763258       6.58848483       7.30342642  T       0.04983199       0.04659210      -2.59126673
O        3.28317895       5.67366990       9.08958423  T      -0.72990193       0.36076222       0.53805935
O        0.13554607       6.34256189       9.51217753  T       0.39542859      -1.37867106      -0.16989314
O        2.32219765       7.38513874      11.15411903  T       0.63698290       0.05526637       0.34448090
O        4.95373917       7.33022421      10.37912397  T       0.09510511      -0.97737134       1.28400249
O        8.26680489       0.02627746       9.21740981  T       1.17303230      -0.40326473       0.61635466
O        7.49752602       7.17531209      11.29054710  T       0.12014500      -0.36968005       0.12798426
O        6.22694152       5.53274173       6.84933038  T       0.25550680       0.36671177      -0.35835389
O        5.82639168       9.86302924       7.97003614  T       0.53723808      -0.10852782      -0.33154451
O        8.94842243       6.11430935       7.17323089  T       0.75875750       0.65929242      -0.49481331
O        7.17686979       7.65765151       8.19734721  T      -0.63345878      -0.28029970       0.31442877
O        3.55000000       4.18000000       1.53000000  F       0.00000000       0.00000000       0.00000000
O        1.14000000       4.89000000       1.35000000  F       0.00000000       0.00000000       0.00000000
O        9.29000000       1.31000000       1.44000000  F       0.00000000       0.00000000       0.00000000
O        6.84000000       0.20000000       1.30000000  F       0.00000000       0.00000000       0.00000000
O        3.95000000       9.60000000       1.25000000  F       0.00000000       0.00000000       0.00000000
O        2.28000000       7.42000000       1.08000000  F       0.00000000       0.00000000       0.00000000
O        7.52000000       7.21000000       1.37000000  F       0.00000000       0.00000000       0.00000000
Si       2.09710316       3.97075457      12.36428608  T      -1.12463065       0.62143498       1.02409252
Si       2.90612818       3.64589615      15.02173596  T      -0.27379080       0.59163564      -0.69894213
Si       0.82552908       1.12229168      11.67133217  T      -0.39542566      -0.93369079      -1.44580064
Si       8.34428641       1.02197174      15.63059886  T       0.61119204      -0.20326236       0.81198131
Si       5.55412821       2.08252767      14.45337576  T       0.89269961       0.99559859       0.54928422
Si       4.76469609       5.82009467      16.12447836  T       0.10104082      -1.32973697       0.33369340
Si       0.02158216       9.17514378      13.87082571  T       0.15889641       1.02504858      -0.90266758
Si       6.20262928       5.15498236      13.62516757  T       0.48445973      -0.44089185       0.48225561
Si       5.36347163       9.84076527      12.18541674  T      -1.15849594       1.90530425       0.72659639
Si       8.39771044       7.02685081      12.67621410  T       0.34971733      -0.23838407      -0.91710851
Si       3.15048368       4.30560953      20.23019265  T       0.92241281      -0.34365106       0.26806148
Si       2.10232263       1.50001808      19.05832491  T       0.09823364       1.37943012       0.10079455
Si       0.47992312       2.70414379      16.88876993  T       0.42437415       1.15909584      -0.10185241
Si       4.96433942       1.55787764      17.63457977  T       0.48093550      -0.08361609       0.00188857
Si       5.96065584       3.72324223      19.64750653  T       0.17270715      -0.39100993      -1.64931888
Si       7.69769650       1.25017588      20.55175983  T      -0.00283985      -0.14882403       0.49711337
Si       2.56167994       8.76192551      20.40087653  T      -0.07218412       0.58576542       1.43723138
Si       2.88195143       6.72829949      18.15496061  T      -1.33768197       0.28612000      -0.06340856
Si       1.10820808       6.13228945      21.32506359  T       0.29042467       0.06192290       0.06835286
Si       0.14161096       5.55936905      18.37927771  T      -0.10337277       0.00006911      -0.77480140
Si       6.09688744       9.25578224      22.47135859  T      -0.26024524       1.77602512      -0.64429984
Si       7.08406092       6.26091950      18.17568567  T      -0.90271846      -0.23876131       0.67655973
Si       7.18413514       9.47388223      18.13918133  T       0.29147934       0.01037266      -1.20254980
Si       2.10000000       3.98000000       2.32000000  F       0.00000000       0.00000000       0.00000000
Si       2.87786756       3.64102356       5.01123779  T      -1.34571202       0.68448081      -0.73829381
Si       0.89000000       1.15000000       1.77000000  F       0.00000000       0.00000000       0.00000000
Si       8.39701789       1.07441906       5.61904183  T       1.53493366      -0.42285474       0.44165438
Si       5.52996396       1.98894149       4.42043520  T       0.51310216       0.46366125      -0.00809666
Si       4.81152635       5.81266318       6.14020187  T       0.01007093      -0.31481548       0.50245927
Si       0.06270887       9.16576425       3.96649195  T       0.37028349       2.02124813       0.09927718
Si       6.19444499       5.12996625       3.61853441  T       0.23281664      -1.12750615      -0.39070975
Si       5.42000000       9.77000000       2.06000000  F       0.00000000       0.00000000       0.00000000
Si       8.44247062       7.02225303       2.75009000  T       0.24595692      -0.21165535      -0.21187336
Si       3.68646325       4.27452435       9.91801427  T      -1.26274668       0.33380233      -0.68638161
Si       2.25860900       1.62427477       8.96158971  T      -1.09714851       0.32845181       0.08232085
Si       0.49669130       2.81604462       6.98940927  T       1.31331186      -0.45194471       1.20896350
Si       5.04572615       1.22971025       7.47199167  T       1.26455778      -0.16601805      -0.00243549
Si       6.56861299       3.46725806       9.07242663  T       0.12854115      -0.10104383       1.05593732
Si       7.88733879       0.95542922      10.46970603  T      -1.62635694       0.01750894      -0.28407726
Si       3.53626288       8.21568307      10.42132788  T      -0.52716674      -0.62004790      -0.28518620
Si       2.95760489       6.89145783       8.02342811  T       0.13677156      -0.38436248       0.18343948
Si       0.90818694       6.41781742      11.02114942  T      -0.27801036      -0.90999497      -0.24941745
Si       0.29636881       5.78276467       7.94904366  T      -0.14381678      -0.15541264       0.37036713
Si       5.88784186       7.06183161      11.60983677  T      -0.12745793       0.20669276       0.75137936
Si       7.41590300       6.09395086       7.78062072  T      -0.22303596       0.12665442       0.19094981
Si       7.36914028       9.28503101       8.03689713  T      -0.55030804       0.11074068      -0.26038611
Si       7.93000000       1.02000000       0.50000000  F       0.00000000       0.00000000       0.00000000
Si       0.91000000       6.44000000       0.98000000  F       0.00000000       0.00000000       0.00000000
Si       5.91000000       7.08000000       1.49000000  F       0.00000000       0.00000000       0.00000000
C        5.03131023       4.99819027      23.50278733  T      -0.13435381      -0.20294809     -13.25633377
F        5.77998861       6.05925203      23.51257976  T       0.08356557       0.12266191     -20.79091679
F        5.77912138       3.94799108      23.51502076  T      -0.03081450       0.08527504     -20.74392103
153
Lattice="10.0 0.0 0.0 0.0 10.0 0.0 0.0 0.0 43.74" Properties=species:S:1:pos:R:3:move_mask:L:1:momenta:R:3 etch=trj_CF2_30eV_case1 idx=0 index=0 source=trj_CF2_30eV_case1/0000/OUTCAR converged=T time_fs=31.0 pbc="T T T"
O        2.18374603       4.63831367      13.88266907  T      -0.30838499      -0.04193153       0.21788622
O        1.44704707       2.45583319      12.33975555  T      -0.42781668      -0.01013122      -1.42454058
O        3.83548619       2.57905777      14.26957297  T      -0.43233590      -0.60900159       0.25571104
O        3.73151143       4.51546058      16.11658682  T      -0.74052281      -0.81712899       0.18340164
O        1.75336411       2.89736425      15.86960486  T       0.70641632      -0.08678058       0.02577629
O        5.04525128       1.71312115      16.00627318  T      -0.12434214       0.43260825      -0.20438756
O        5.05420831       0.94103940      13.29516043  T      -0.93966023       0.87916326       0.46281792
O        6.14978838       3.62369992      14.04394615  T      -0.10930262       0.09746094      -0.15726668
O        7.10821035       1.45804518      14.73369062  T       0.80348535       0.86310797       0.66723560
O        8.98266954       2.31907016      16.41833717  T      -0.89433062       0.59890979       0.84126314
O        9.63198317       0.42128930      14.79006891  T       0.57632849       0.54366715       0.74311331
O        0.92127738       9.76715558      12.60374708  T      -0.16529305       0.40626962      -0.25030156
O        1.11208642       8.19207613      14.66182882  T      -0.07490166      -0.99688485       0.81774493
O        9.99227227       6.92017875      12.23242358  T       0.83270939      -0.73317310       1.20642821
O        5.30650916       6.12910862      14.62096328  T       1.10708637      -1.04821758       0.54127802
O        5.64885906       5.53341591      12.11842827  T      -0.06099589      -0.87583597      -0.79285190
O        7.73446279       5.84422028      13.62591752  T      -0.45815786       0.33985095      -0.40778429
O        5.59164223       8.24059948      12.67062705  T       0.04598651      -0.08306875       1.42013177
O        8.62272217       8.36077698      13.61285116  T      -0.01306482      -0.04495482      -0.35235532
O        2.43727762       5.13518282      21.47750081  T       0.08142333      -0.70131395      -0.53473492
O        0.22247157       6.14000734      22.70733631  T       0.57586543      -0.52515620      -1.31936231
O        1.88417004       0.20079060      20.07259604  T       0.28531246       0.76024704       0.54491645
O        2.27692774       2.86505311      19.93872517  T       1.01207233      -1.18685637      -0.06643353
O        3.45500979       1.29843316      18.20840768  T       0.48051774       0.26877001      -0.41955811
O        0.82230543       1.60376954      18.05595148  T      -0.77665517       0.40526486       0.28981308
O        0.39747417       4.05758044      17.79090701  T      -0.35116216       0.08293519       0.44508494
O        9.08822083       1.38255025      21.44233988  T      -0.19847477       0.37270522       0.08370813
O        5.45226662       3.04431554      18.24325056  T       0.61739462       0.15101494      -0.62898663
O        4.67578632       3.92722935      20.65322930  T       0.44515710      -0.24352212       0.52956797
O        7.06734062       2.73918088      20.33763211  T       0.06123392       0.35307489       0.73016677
O        6.46214107       0.49911791      21.48534206  T       0.78239381       0.16714615       0.64638102
O        6.60965071       5.23591144      19.37456222  T      -0.17328431       0.00150876      -0.08354225
O        7.92894283       9.81311457      16.75447739  T      -0.02839253       0.36373409       0.47803554
O        3.83672594       6.96912499      16.83288537  T      -0.00678320      -0.49239029      -0.28886631
O        3.81239184       9.38786962      21.38408481  T       0.47681170      -0.31073601      -0.67509956
O        3.25066390       8.00384819      19.12388387  T       0.41935818       0.27693455       0.03761278
O        1.29499013       6.64765799      17.75454809  T       0.54908667      -0.27769036       0.75467138
O        3.20772321       5.28933184      18.88407494  T       0.14881595       0.05009929       0.61995265
O        0.20738985       5.57609609      19.99965794  T      -1.36554855       0.37704220      -0.69822847
O        1.52827769       7.76736529      21.14784331  T       0.09090098       0.21820529       0.75256319
O        4.70332445       8.39324910      21.99153239  T      -1.49040200      -1.25451794       0.33129838
O        8.05095280       0.20376753      19.35869170  T       0.43664032       0.11864916      -0.10582880
O        6.87564234       8.80262605      23.68465408  T      -0.42002321      -0.63296818      -0.31541000
O        6.18419098       5.80575082      16.89761024  T      -0.42244947       0.24593501       0.18808046
O        5.73009698       0.22457854      18.21716575  T      -0.38767525      -0.41783589       0.08723198
O        8.68016812       6.05603348      17.92157679  T      -0.06390705       0.53104793       0.05478762
O        6.95010659       7.86261239      18.40036171  T      -0.43111581      -0.17827627       0.13466218
O        2.07374640       4.64839304       3.85245597  T      -0.84592926      -0.65543205       0.25378776
O        1.53561539       2.48667226       2.22260014  T       0.68075862       0.22359699      -2.70447106
O        3.87451254       2.68101942       4.16374321  T      -0.54197222       0.04791572      -0.11714290
O        3.80230118       4.57255694       6.13750530  T       0.79245048      -0.06419471      -0.19967105
O        1.64092868       2.95189876       5.79516111  T      -0.36897218       0.43459650      -0.09669047
O        4.90796707       1.32335891       5.88818444  T       0.57039964       0.18312605       0.13406142
O        5.20642059       0.90764077       3.17694175  T       0.20878769       0.62199731      -0.43385727
O        6.18554358       3.58753855       4.04524132  T       0.16137077      -0.40203495      -0.40700290
O        7.09306569       1.54416235       4.80422249  T       0.87614271       1.40083209       1.10162226
O        9.07132048       2.29819009       6.36261010  T      -0.62297507      -0.77428661       0.58433312
O        9.65189650       0.58537469       4.63675385  T       0.22060557       1.07088583      -0.78738577
O        0.99719357       9.72638487       2.50770486  T       0.76956659      -0.47406844      -0.50076901
O        1.13150562       8.13681830       4.63655307  T       0.46332501      -1.74810806       0.84986346
O        9.87000000       6.98000000       2.02000000  F       0.00000000       0.00000000       0.00000000
O        5.30736023       6.04908289       4.61629459  T       1.08550224      -0.63825556       0.27784680
O        5.59000000       5.63000000       2.17000000  F       0.00000000       0.00000000       0.00000000
O        7.73213616       5.81716191       3.59624302  T      -0.29075628      -0.07616645      -0.32033815
O        5.58651421       8.23816585       2.50594694  T      -0.30909872      -0.55759932       0.00020714
O        8.65027282       8.41569987       3.57757405  T       0.47672551       0.62378055      -0.16023481
O        3.48267872       4.14407018      11.52940974  T       0.15824957      -0.30933809       0.57834756
O        1.11518432       4.86037917      11.39637155  T      -0.23545879       0.00342575       0.40810729
O        1.75943535       0.88134564      10.29769312  T       0.34413266      -0.37937769      -0.90254100
O        2.70669596       3.13787228       9.27218121  T      -0.62605979       0.52799194      -0.43554275
O        3.64672355       1.03671470       8.23422307  T       0.42797880       0.58019703       0.62937872
O        0.95460042       1.60583593       7.97336108  T      -0.74234846      -0.00203956       0.20650858
O        0.44845171       4.18707188       7.84495313  T       0.19955506      -0.26767620      -0.58324025
O        9.27830196       1.30815911      11.29554771  T       0.03723181      -0.26878336      -0.83095900
O        6.00641054       2.53550836       7.82102279  T       0.46935249      -0.04160694       0.46722073
O        5.26214656       4.07927017       9.81034889  T       0.21703569       0.14470573       0.68476342
O        7.43237937       2.46507338      10.02170548  T       0.42102368       0.19050601      -0.40594238
O        6.73626954       0.22792387      11.27559140  T      -0.74544111       0.41489052      -0.03969218
O        7.46482721       4.81600430       8.78832695  T      -0.27672456      -0.08944873      -1.36769156
O        8.02842201       9.82538868       6.64343309  T      -0.31014188       0.53674329       0.54050126
O        4.04506216       7.09701155       6.87179841  T      -0.25236627       0.26018528       0.12996072
O        4.06581337       9.61027505      11.14576198  T       0.75557674       0.55578625      -0.60086201
O        3.03682369       8.29017074       8.86065665  T      -0.32462986      -0.21357783       0.56362780
O        1.54781901       6.58872872       7.28749053  T       0.01154926       0.03166782      -2.59478188
O        3.27867158       5.67560990       9.09298218  T      -0.73840513       0.27124947       0.56834955
O        0.13830634       6.33415540       9.51142759  T       0.50353361      -1.35846544      -0.07309682
O        2.32565438       7.38523027      11.15626988  T       0.48633254      -0.02693839       0.35657616
O        4.95390614       7.32427908      10.38650319  T      -0.04430088      -0.95702124       1.11619220
O        8.27392684       0.02341460       9.22086056  T       1.14444926      -0.52982713       0.50644515
O        7.49847555       7.17304832      11.29153745  T       0.18873978      -0.36722942       0.19343513
O        6.22849488       5.53504231       6.84713048  T       0.25035230       0.38277660      -0.35791751
O        5.82982772       9.86234411       7.96812135  T       0.57993160      -0.11429595      -0.29171042
O        8.95262823       6.11853550       7.16992781  T       0.60848990       0.71729524      -0.57969047
O        7.17304796       7.65602261       8.19931559  T      -0.61115610      -0.24884914       0.32675349
O        3.55000000       4.18000000       1.53000000  F       0.00000000       0.00000000       0.00000000
O        1.14000000       4.89000000       1.35000000  F       0.00000000       0.00000000       0.00000000
O        9.29000000       1.31000000       1.44000000  F       0.00000000       0.00000000       0.00000000
O        6.84000000       0.20000000       1.30000000  F       0.00000000       0.00000000       0.00000000
O        3.95000000       9.60000000       1.25000000  F       0.00000000       0.00000000       0.00000000
O        2.28000000       7.42000000       1.08000000  F       0.00000000       0.00000000       0.00000000
O        7.52000000       7.21000000       1.37000000  F       0.00000000       0.00000000       0.00000000
Si       2.09307410       3.97293088      12.36781282  T      -1.17685574       0.62058970       0.98989987
Si       2.90517430       3.64796527      15.01927459  T      -0.27073004       0.58913663      -0.70847886
Si       0.82433770       1.11897982      11.66611655  T      -0.28539409      -0.95815894      -1.53711771
Si       8.34641545       1.02110707      15.63354664  T       0.60682400      -0.28895433       0.87425950
Si       5.55700324       2.08596718      14.45527815  T       0.75112958       0.97045580       0.53839709
Si       4.76494383       5.81546827      16.12553969  T       0.03872029      -1.31586959       0.27320043
Si       0.02224795       9.17866670      13.86753113  T       0.22238543       0.98725088      -0.97771295
Si       6.20434018       5.15368283      13.62684230  T       0.49311115      -0.30098632       0.47104350
Si       5.35950580       9.84725188      12.18774482  T      -1.10837564       1.80034938       0.60542774
Si       8.39904785       7.02598235      12.67301367  T       0.41539643      -0.25820676      -0.91098148
Si       3.15345114       4.30424939      20.23101622  T       0.77439404      -0.43454234       0.20254834
Si       2.10265063       1.50480894      19.05877556  T       0.08930645       1.35498029       0.15366869
Si       0.48156376       2.70827959      16.88860341  T       0.51174764       1.20367190       0.00560120
Si       4.96591489       1.55766483      17.63447305  T       0.41974051      -0.03852660      -0.06421177
Si       5.96133348       3.72201423      19.64163310  T       0.21544353      -0.31108777      -1.70593095
Si       7.69760599       1.24951333      20.55380247  T      -0.04795368      -0.22890519       0.66888469
Si       2.56153907       8.76407926      20.40588044  T      -0.00837752       0.64568660       1.42060729
Si       2.87728836       6.72933218      18.15460098  T      -1.32275749       0.30484899      -0.14071553
Si       1.10911714       6.13256903      21.32528912  T       0.22935545       0.09675216       0.05647066
Si       0.14138281       5.55938511      18.37635228  T      -0.02851586       0.01003845      -0.89679880
Si       6.09592468       9.26212997      22.46886909  T      -0.29255356       1.84741855      -0.77572583
Si       7.08096772       6.25997848      18.17799386  T      -0.86404039      -0.29823367       0.64177016
Si       7.18510621       9.47392386      18.13503952  T       0.26193783       0.01221493      -1.16063832
Si       2.10000000       3.98000000       2.32000000  F       0.00000000       0.00000000       0.00000000
Si       2.87330651       3.64364659       5.00872264  T      -1.25975674       0.81429283      -0.69889833
Si       0.89000000       1.15000000       1.77000000  F       0.00000000       0.00000000       0.00000000
Si       8.40221206       1.07271700       5.62053674  T       1.43151889      -0.55017669       0.41260272
Si       5.53150355       1.99062110       4.42052403  T       0.36813413       0.49605293       0.05920241
Si       4.81152320       5.81177356       6.14191176  T      -0.01020403      -0.19160363       0.47412579
Si       0.06423328       9.17281950       3.96670991  T       0.50474903       2.00722434       0.02569189
Si       6.19530111       5.12606316       3.61734664  T       0.25641364      -1.10309405      -0.28903695
Si       5.42000000       9.77000000       2.06000000  F       0.00000000       0.00000000       0.00000000
Si       8.44318590       7.02157756       2.74937630  T       0.16251494      -0.17352661      -0.19529991
Si       3.68191692       4.27575824       9.91553290  T      -1.33335169       0.37050172      -0.72836643
Si       2.25498690       1.62533814       8.96178627  T      -0.97080062       0.28013920       0.02795571
Si       0.50135107       2.81438986       6.99351552  T       1.34565105      -0.49414021       1.13456042
Si       5.05033353       1.22903414       7.47203868  T       1.36803292      -0.21938328       0.03034547
Si       6.56902374       3.46684188       9.07613083  T       0.10530005      -0.13546482       1.06017098
Si       7.88187008       0.95580982      10.46876782  T      -1.49748097       0.19941588      -0.25322269
Si       3.53451259       8.21352062      10.42033238  T      -0.46994442      -0.61480246      -0.28147731
Si       2.95810101       6.89011978       8.02420875  T       0.14257502      -0.38039611       0.26058874
Si       0.90739362       6.41467734      11.02004467  T      -0.17470338      -0.88358927      -0.38019184
Si       0.29589550       5.78234419       7.95055863  T      -0.12375253      -0.08477947       0.49105374
Si       5.88754779       7.06242233      11.61251400  T      -0.03932863       0.12967721       0.78370824
Si       7.41530124       6.09440652       7.78128809  T      -0.11922035       0.13498325       0.18794235
Si       7.36707418       9.28552994       8.03595002  T      -0.62785428       0.17320845      -0.27820727
Si       7.93000000       1.02000000       0.50000000  F       0.00000000       0.00000000       0.00000000
Si       0.91000000       6.44000000       0.98000000  F       0.00000000       0.00000000       0.00000000
Si       5.91000000       7.08000000       1.49000000  F       0.00000000       0.00000000       0.00000000
C        5.02949261       4.99669929      23.39439826  T      -0.30840092      -0.16049053     -13.25092220
F        5.78060173       6.05993332      23.40507901  T       0.15219575       0.13893878     -20.79344007
F        5.77924721       3.94824085      23.40778881  T       0.07934639       0.01164902     -20.73565053
153
Lattice="10.0 0.0 0.0 0.0 10.0 0.0 0.0 0.0 43.74" Properties=species:S:1:pos:R:3:move_mask:L:1:momenta:R:3 etch=trj_CF2_30eV_case1 idx=0 index=0 source=trj_CF2_30eV_case1/0000/OUTCAR converged=T time_fs=32.0 pbc="T T T"
O        2.18191252       4.63776258      13.88387769  T      -0.28967486      -0.13628889       0.17583873
O        1.44447812       2.45594121      12.33119024  T      -0.40895399       0.04549212      -1.36517249
O        3.83277917       2.57566832      14.27099151  T      -0.44975713      -0.49368218       0.20647494
O        3.72730220       4.51070785      16.11777716  T      -0.62873055      -0.72888867       0.20502518
O        1.75717706       2.89662432      15.86989664  T       0.53379171      -0.15440980       0.07016009
O        5.04456118       1.71564654      16.00571674  T      -0.09993835       0.38985505       0.02335474
O        5.04876294       0.94635472      13.29796581  T      -0.83300170       0.85131016       0.45023047
O        6.14910441       3.62407122      14.04297447  T      -0.11336722       0.02255523      -0.15895001
O        7.11333502       1.46324117      14.73768889  T       0.86378101       0.82937562       0.63414550
O        8.97717832       2.32275050      16.42331197  T      -0.89161005       0.59997061       0.77959827
O        9.63533923       0.42485458      14.79480919  T       0.51813083       0.61491236       0.79891888
O        0.92010946       9.76964495      12.60233167  T      -0.21445568       0.40397781      -0.21098488
O        1.11160816       8.18591504      14.66688241  T      -0.08335136      -1.00767899       0.82654095
O        9.99699232       6.91570571      12.23982182  T       0.70532485      -0.72406237       1.20131225
O        5.31313861       6.12250058      14.62428648  T       1.05078330      -1.10324166       0.54168345
O        5.64852190       5.52801942      12.11384323  T      -0.04756501      -0.88070874      -0.69820717
O        7.73179214       5.84631191      13.62329686  T      -0.41053247       0.34144569      -0.44564007
O        5.59190765       8.24066475      12.67968334  T       0.04045018       0.10494805       1.52710364
O        8.62257594       8.36067146      13.61064438  T      -0.03333458       0.01155904      -0.36643908
O        2.43767828       5.13095403      21.47397263  T       0.04775263      -0.67521176      -0.61391511
O        0.22603497       6.13672863      22.69915115  T       0.58291112      -0.54296452      -1.34360328
O        1.88591967       0.20553328      20.07575234  T       0.28488514       0.78374174       0.48300845
O        2.28343100       2.85839920      19.93850468  T       1.10687617      -0.97604436      -0.00313555
O        3.45812665       1.30007947      18.20563639  T       0.53162334       0.26782010      -0.48176562
O        0.81772398       1.60607183      18.05776323  T      -0.71397713       0.34497815       0.30080001
O        0.39523683       4.05853879      17.79367819  T      -0.37686175       0.22850751       0.45659084
O        9.08695875       1.38488073      21.44277553  T      -0.21200739       0.38641729       0.05864054
O        5.45612118       3.04499769      18.23941839  T       0.63793346       0.07103900      -0.61982674
O        4.67862252       3.92572576      20.65644910  T       0.47891375      -0.24635317       0.51717691
O        7.06776612       2.74129687      20.34197993  T       0.07683357       0.33567350       0.68512289
O        6.46703097       0.50007638      21.48923183  T       0.80958651       0.14676093       0.61906660
O        6.60849030       5.23572841      19.37417617  T      -0.20496508      -0.06169116      -0.04151267
O        7.92892964       9.81554519      16.75702920  T       0.02528279       0.42773584       0.35085921
O        3.83655794       6.96606683      16.83128258  T      -0.04891075      -0.50404064      -0.23259076
O        3.81517486       9.38602013      21.37988064  T       0.43011844      -0.29114827      -0.69341008
O        3.25308269       8.00552287      19.12418303  T       0.36696482       0.26831317       0.06041498
O        1.29807889       6.64574899      17.75933753  T       0.45362325      -0.34385410       0.80350166
O        3.20870146       5.28948403      18.88817208  T       0.16963104       0.00050525       0.71315269
O        0.19934691       5.57859328      19.99588085  T      -1.25238513       0.43695691      -0.53003997
O        1.52875846       7.76824105      21.15248641  T       0.06635903       0.06758073       0.75932730
O        4.69443010       8.38565124      21.99364754  T      -1.40326533      -1.21769583       0.35838124
O        8.05353376       0.20452489      19.35798921  T       0.40278379       0.12815864      -0.12292703
O        6.87312267       8.79863252      23.68291658  T      -0.40257682      -0.66663791      -0.25316790
O        6.18177061       5.80712337      16.89898381  T      -0.36521161       0.20058299       0.26001158
O        5.72776247       0.22211848      18.21760342  T      -0.37166095      -0.38339314       0.05499669
O        8.67967666       6.05927122      17.92182843  T      -0.09691654       0.52353749       0.02670972
O        6.94740736       7.86185533      18.40127678  T      -0.44792760      -0.06747390       0.16310777
O        2.06870565       4.64385680       3.85385721  T      -0.79673133      -0.82090424       0.20161487
O        1.53980894       2.48778433       2.20599240  T       0.68533513       0.13819986      -2.70492221
O        3.87104324       2.68148499       4.16312795  T      -0.58797082       0.10390995      -0.08295422
O        3.80658412       4.57158463       6.13599823  T       0.60096686      -0.25341324      -0.29137513
O        1.63859803       2.95455112       5.79470495  T      -0.38998894       0.42888268      -0.05158475
O        4.91143628       1.32460347       5.88858071  T       0.55948435       0.22204075      -0.00481792
O        5.20792398       0.91138157       3.17431944  T       0.28126451       0.59648805      -0.41960445
O        6.18649439       3.58504694       4.04253729  T       0.14806233      -0.40998670      -0.47394467
O        7.09886776       1.55250928       4.81097225  T       1.01149558       1.31760060       1.09583424
O        9.06782959       2.29408726       6.36659291  T      -0.50951834      -0.55953022       0.71545584
O        9.65317833       0.59182583       4.63185721  T       0.19801019       1.03019540      -0.80743098
O        1.00184198       9.72356862       2.50486028  T       0.74423867      -0.44236832      -0.42507914
O        1.13415909       8.12627547       4.64170577  T       0.39772420      -1.68212348       0.82637897
O        9.87000000       6.98000000       2.02000000  F       0.00000000       0.00000000       0.00000000
O        5.31392204       6.04531816       4.61788280  T       1.05066383      -0.58757347       0.24026884
O        5.59000000       5.63000000       2.17000000  F       0.00000000       0.00000000       0.00000000
O        7.73056759       5.81671675       3.59420202  T      -0.21906682      -0.06855734      -0.34452752
O        5.58451669       8.23476423       2.50645558  T      -0.34197971      -0.54744627       0.16583610
O        8.65306326       8.41949111       3.57660153  T       0.43272483       0.61021111      -0.15678026
O        3.48361068       4.14215655      11.53302830  T       0.14359370      -0.31373617       0.59848530
O        1.11375558       4.86032453      11.39889287  T      -0.23024324      -0.02155522       0.41262772
O        1.76137452       0.87884133      10.29243687  T       0.28644286      -0.43742647      -0.80722619
O        2.70292476       3.14140719       9.26953177  T      -0.60336392       0.62226389      -0.42798619
O        3.64884224       1.04042299       8.23827946  T       0.26341093       0.62778370       0.69083326
O        0.95017772       1.60579879       7.97466278  T      -0.69672813      -0.01202474       0.21909400
O        0.44969468       4.18521347       7.84135348  T       0.20496096      -0.33466140      -0.58764588
O        9.27813445       1.30641013      11.29035680  T      -0.09217044      -0.30096040      -0.85977297
O        6.00932118       2.53542846       7.82406990  T       0.47831001       0.01489486       0.52509447
O        5.26353134       4.08004778       9.81441697  T       0.23087936       0.10900099       0.64012006
O        7.43488467       2.46630488      10.01917128  T       0.39565027       0.21005409      -0.41830535
O        6.73112592       0.23028304      11.27583808  T      -0.92919691       0.35431551       0.11954638
O        7.46319175       4.81527681       8.78018316  T      -0.25555202      -0.14937130      -1.28277206
O        8.02675468       9.82866365       6.64651201  T      -0.23207895       0.52907884       0.46129898
O        4.04401514       7.09826280       6.87214943  T      -0.08815122       0.14707312      -0.01543158
O        4.07034422       9.61365957      11.14205962  T       0.71882612       0.54467401      -0.60603184
O        3.03477792       8.28894160       8.86419860  T      -0.34210907      -0.18727602       0.58783838
O        1.54778274       6.58886252       7.27161770  T      -0.02240278       0.01092520      -2.57071592
O        3.27411136       5.67700386       9.09655634  T      -0.74722483       0.18342606       0.59513125
O        0.14172564       6.32589443       9.51129093  T       0.60987402      -1.33132159       0.02940019
O        2.32814505       7.38479514      11.15850045  T       0.32300417      -0.11581890       0.37021082
O        4.95316413       7.31849390      10.39279844  T      -0.19985615      -0.92569965       0.93206227
O        8.28083143       0.01977032       9.22362020  T       1.10215577      -0.65709030       0.39218891
O        7.49983700       7.17080828      11.29290881  T       0.25390550      -0.36194334       0.25185371
O        6.23001393       5.53744241       6.84493923  T       0.24431633       0.39910723      -0.35551761
O        5.83348835       9.86163069       7.96645874  T       0.60992325      -0.11750793      -0.24950674
O        8.95587204       6.12311486       7.16612992  T       0.44669597       0.77411726      -0.65564134
O        7.16936880       7.65461038       8.20135908  T      -0.58704234      -0.20984269       0.33887892
O        3.55000000       4.18000000       1.53000000  F       0.00000000       0.00000000       0.00000000
O        1.14000000       4.89000000       1.35000000  F       0.00000000       0.00000000       0.00000000
O        9.29000000       1.31000000       1.44000000  F       0.00000000       0.00000000       0.00000000
O        6.84000000       0.20000000       1.30000000  F       0.00000000       0.00000000       0.00000000
O        3.95000000       9.60000000       1.25000000  F       0.00000000       0.00000000       0.00000000
O        2.28000000       7.42000000       1.08000000  F       0.00000000       0.00000000       0.00000000
O        7.52000000       7.21000000       1.37000000  F       0.00000000       0.00000000       0.00000000
Si       2.08888587       3.97508112      12.37119453  T      -1.21555349       0.60652815       0.94118746
Si       2.90423922       3.65000279      15.01678204  T      -0.26329420       0.57351625      -0.71628990
Si       0.82353386       1.11560178      11.66057866  T      -0.17435343      -0.97129665      -1.62971454
Si       8.34853403       1.01996442      15.63671743  T       0.60510277      -0.36192094       0.93940157
Si       5.55938179       2.08931073      14.45714178  T       0.60904165       0.94050108       0.52746951
Si       4.76495730       5.81089037      16.12639044  T      -0.03240863      -1.30184598       0.21367593
Si       0.02313944       9.18203795      13.86400926  T       0.28743708       0.93880883      -1.03207742
Si       6.20607466       5.15288152      13.62843848  T       0.49817339      -0.15693780       0.43786417
Si       5.35572316       9.85333948      12.18965730  T      -1.05405692       1.67783518       0.48939109
Si       8.40061804       7.02504537      12.66985452  T       0.48282609      -0.27738219      -0.89323055
Si       3.15590082       4.30256833      20.23160761  T       0.62661648      -0.52689440       0.13532939
Si       2.10294838       1.50946668      19.05938046  T       0.08133865       1.30364649       0.18887962
Si       0.48348865       2.71255018      16.88880339  T       0.58621746       1.23611524       0.10783382
Si       4.96727511       1.55760503      17.63412470  T       0.35819354       0.00371287      -0.13571314
Si       5.96216663       3.72106561      19.63559327  T       0.26160791      -0.23168622      -1.74453560
Si       7.69736663       1.24858191      20.55642520  T      -0.08797581      -0.30237799       0.82835249
Si       2.56161969       8.76643992      20.41079363  T       0.05391496       0.70363825       1.38567363
Si       2.87273416       6.73043349      18.15398676  T      -1.27549184       0.32502576      -0.20846541
Si       1.10981361       6.13295876      21.32543441  T       0.16938436       0.12473969       0.02246047
Si       0.14140207       5.55944561      18.37301498  T       0.03773003       0.02580656      -1.00931947
Si       6.09483027       9.26866623      22.46595678  T      -0.33473690       1.88347658      -0.88490475
Si       7.07802860       6.25884105      18.18016660  T      -0.81473527      -0.35068303       0.59945720
Si       7.18595678       9.47396156      18.13109205  T       0.22270521       0.00847692      -1.09191171
Si       2.10000000       3.98000000       2.32000000  F       0.00000000       0.00000000       0.00000000
Si       2.86906980       3.64671106       5.00635552  T      -1.16080180       0.93637419      -0.65353701
Si       0.89000000       1.15000000       1.77000000  F       0.00000000       0.00000000       0.00000000
Si       8.40701274       1.07057497       5.62192597  T       1.31111646      -0.67345819       0.38172979
Si       5.53254537       1.99240682       4.42085033  T       0.22892988       0.52428680       0.12741788
Si       4.81146424       5.81133269       6.14351064  T      -0.02202683      -0.05947774       0.43872988
Si       0.06625668       9.17977058       3.96667311  T       0.65486242       1.96196567      -0.04656185
Si       6.19623692       5.12225813       3.61650859  T       0.27848209      -1.07136937      -0.19102761
Si       5.42000000       9.77000000       2.06000000  F       0.00000000       0.00000000       0.00000000
Si       8.44360506       7.02104567       2.74872910  T       0.07693055      -0.12949212      -0.17395616
Si       3.67715903       4.27710801       9.91294476  T      -1.38336297       0.39989649      -0.74713625
Si       2.25183570       1.62623864       8.96177416  T      -0.82851274       0.23573932      -0.03655069
Si       0.50607233       2.81258960       6.99731942  T       1.34894156      -0.53499350       1.03632268
Si       5.05528176       1.22818348       7.47220901  T       1.45893782      -0.26560368       0.06775518
Si       6.56934375       3.46631989       9.07983032  T       0.07673756      -0.16129986       1.05327339
Si       7.87688031       0.95681639      10.46792996  T      -1.35364602       0.37424090      -0.22672134
Si       3.53299587       8.21139237      10.41937498  T      -0.39423422      -0.60058031      -0.26312107
Si       2.95857836       6.88879929       8.02523564  T       0.12659584      -0.37430608       0.32376671
Si       0.90696905       6.41164823      11.01850500  T      -0.06757870      -0.84667108      -0.49725124
Si       0.29551870       5.78217128       7.95244863  T      -0.08947842      -0.01446293       0.58437179
Si       5.88757274       7.06273285      11.61534188  T       0.05424169       0.04731427       0.83710075
Si       7.41507802       6.09490109       7.78192004  T      -0.00719601       0.14881322       0.17092820
Si       7.36476904       9.28623360       8.03496744  T      -0.68656862       0.22744929      -0.28106120
Si       7.93000000       1.02000000       0.50000000  F       0.00000000       0.00000000       0.00000000
Si       0.91000000       6.44000000       0.98000000  F       0.00000000       0.00000000       0.00000000
Si       5.91000000       7.08000000       1.49000000  F       0.00000000       0.00000000       0.00000000
C        5.02630218       4.99557718      23.28605414  T      -0.46832014      -0.11332607     -13.24512661
F        5.78154835       6.06067052      23.29756283  T       0.21214632       0.14396265     -20.79685792
F        5.77993641       3.94811924      23.30061106  T       0.18617088      -0.05729142     -20.72227952
153
Lattice="10.0 0.0 0.0 0.0 10.0 0.0 0.0 0.0 43.74" Properties=species:S:1:pos:R:3:move_mask:L:1:momenta:R:3 etch=trj_CF2_30eV_case1 idx=0 index=0 source=trj_CF2_30eV_case1/0000/OUTCAR converged=T time_fs=33.0 pbc="T T T"
O        2.18018073       4.63665442      13.88482922  T      -0.27530716      -0.22321999       0.13431673
O        1.44202503       2.45639103      12.32299641  T      -0.39031812       0.10072232      -1.30372063
O        3.82996178       2.57300907      14.27210972  T      -0.46810166      -0.37143976       0.15796962
O        3.72380796       4.50653006      16.11910986  T      -0.50819139      -0.63044297       0.22950950
O        1.75990422       2.89546895      15.87047258  T       0.35366534      -0.22166243       0.11778489
O        5.04403006       1.71790734      16.00655515  T      -0.07244149       0.34663305       0.24860465
O        5.04399113       0.95148204      13.30068032  T      -0.72042672       0.81787755       0.43319014
O        6.14839807       3.62397112      14.04199665  T      -0.11652244      -0.05534072      -0.15945498
O        7.11879319       1.46822846      14.74146632  T       0.91177521       0.79525626       0.59530043
O        8.97175174       2.32643800      16.42791416  T      -0.87307015       0.60140022       0.72011450
O        9.63835991       0.42880819      14.79985436  T       0.46749680       0.66967048       0.84194118
O        0.91865202       9.77211020      12.60115270  T      -0.25946621       0.39862574      -0.17358043
O        1.11103863       8.17972727      14.67195853  T      -0.10446442      -1.00567870       0.82517684
O       10.00094081       6.91128560      12.24714926  T       0.58196324      -0.71613512       1.18298726
O        5.31939458       6.11557452      14.62761887  T       0.98547807      -1.15162046       0.54426649
O        5.64828711       5.52261689      12.10987840  T      -0.02782798      -0.87760371      -0.59130980
O        7.72943410       5.84841186      13.62044870  T      -0.35650501       0.34248102      -0.48179784
O        5.59213935       8.24188797      12.68934612  T       0.03512673       0.29289985       1.61718722
O        8.62232532       8.36092826      13.60835214  T      -0.04710907       0.07293676      -0.38024420
O        2.43785026       5.12690238      21.46997043  T       0.00693455      -0.64360312      -0.68893932
O        0.22960752       6.13333952      22.69087450  T       0.57865336      -0.56112893      -1.34884506
O        1.88767069       0.21040356      20.07852534  T       0.28576467       0.80166332       0.42024801
O        2.29052236       2.85310998      19.93870744  T       1.20331454      -0.74345631       0.07096083
O        3.46150213       1.30172485      18.20250850  T       0.56423922       0.26848169      -0.53539122
O        0.81355597       1.60800936      18.05964920  T      -0.64215110       0.28666254       0.31395148
O        0.39285541       4.06037467      17.79650163  T      -0.39798948       0.36801159       0.46188667
O        9.08562478       1.38729461      21.44306481  T      -0.22177966       0.39986187       0.03611090
O        5.46009683       3.04518757      18.23563584  T       0.65687844      -0.00907511      -0.61262604
O        4.68166654       3.92420436      20.65955712  T       0.51242206      -0.24918539       0.49295559
O        7.06827847       2.74329696      20.34603470  T       0.08950435       0.31531310       0.63483504
O        6.47207240       0.50093775      21.49292657  T       0.83171772       0.13560793       0.58286081
O        6.60713253       5.23515052      19.37405852  T      -0.23736298      -0.12666331       0.00366407
O        7.92926340       9.81836136      16.75876588  T       0.08421700       0.48889682       0.21341811
O        3.83611654       6.96293386      16.83003466  T      -0.09562999      -0.51670685      -0.17354350
O        3.81767828       9.38430050      21.37558173  T       0.38600092      -0.26847230      -0.70578552
O        3.25515386       8.00713956      19.12463067  T       0.30621228       0.25798218       0.08580051
O        1.30052672       6.64344023      17.76439327  T       0.34073517      -0.40768519       0.84133594
O        3.20980346       5.28935102      18.89281324  T       0.18905493      -0.04235408       0.79668403
O        0.19203071       5.58146590      19.99316487  T      -1.12927835       0.49914554      -0.35384127
O        1.52910135       7.76820441      21.15715945  T       0.04641745      -0.07821691       0.76205832
O        4.68612819       8.37832479      21.99593829  T      -1.29807524      -1.16627942       0.38821298
O        8.05588543       0.20534263      19.35718410  T       0.36204619       0.13840548      -0.13906984
O        6.87067868       8.79445512      23.68151581  T      -0.39570615      -0.69260925      -0.20629130
O        6.17971163       5.80820789      16.90080715  T      -0.30530112       0.15214406       0.33412402
O        5.72554487       0.21987216      18.21783773  T      -0.34962486      -0.34824105       0.02102632
O        8.67897204       6.06246059      17.92190042  T      -0.13306603       0.51525710      -0.00362590
O        6.94460910       7.86178861      18.40236104  T      -0.46334587       0.04579885       0.18973717
O        2.06395611       4.63832881       3.85492096  T      -0.75124271      -0.97816004       0.14388557
O        1.54403220       2.48836738       2.18939288  T       0.69068944       0.05183857      -2.70180100
O        3.86729605       2.68229594       4.16272693  T      -0.63225593       0.16021132      -0.04754981
O        3.80966821       4.56944325       6.13392799  T       0.40306308      -0.44366501      -0.38280747
O        1.63614451       2.95716018       5.79452928  T      -0.40862878       0.42061965      -0.00565369
O        4.91483481       1.32608180       5.88813244  T       0.54740354       0.25909212      -0.13997101
O        5.20987713       0.91496478       3.17179765  T       0.35523211       0.57079216      -0.40103888
O        6.18735875       3.58250017       4.03942131  T       0.13323755      -0.42006499      -0.54108597
O        7.10545685       1.56033689       4.81766344  T       1.13169566       1.23204187       1.08226824
O        9.06510493       2.29133930       6.37141396  T      -0.37476494      -0.33450011       0.85629069
O        9.65433826       0.59802113       4.62684285  T       0.18080994       0.98769143      -0.82562249
O        1.00632799       9.72096315       2.50249231  T       0.71673296      -0.40536510      -0.34571432
O        1.13635799       8.11620343       4.64667852  T       0.31578636      -1.59521235       0.79154409
O        9.87000000       6.98000000       2.02000000  F       0.00000000       0.00000000       0.00000000
O        5.32024728       6.04187330       4.61925308  T       1.00843211      -0.53412873       0.20695372
O        5.59000000       5.63000000       2.17000000  F       0.00000000       0.00000000       0.00000000
O        7.72945642       5.81632194       3.59201320  T      -0.14206185      -0.05998285      -0.36835856
O        5.58231189       8.23147325       2.50798487  T      -0.37647059      -0.52190701       0.33229445
O        8.65559169       8.42318309       3.57564704  T       0.39152619       0.59161242      -0.15430825
O        3.48442479       4.14022117      11.53673845  T       0.12001219      -0.31636541       0.60812057
O        1.11235354       4.86011234      11.40143162  T      -0.22689495      -0.04765315       0.41368514
O        1.76294294       0.87596528      10.28780315  T       0.22371581      -0.50022825      -0.70042928
O        2.69927634       3.14549721       9.26692063  T      -0.58630699       0.70825001      -0.42317235
O        3.64997625       1.04442203       8.24269098  T       0.10831989       0.67468534       0.74452492
O        0.94606225       1.60566797       7.97606794  T      -0.64223327      -0.03257583       0.24029699
O        0.45096413       4.18299755       7.83775582  T       0.20811518      -0.38343262      -0.58243349
O        9.27717128       1.30446365      11.28499461  T      -0.22100767      -0.33309796      -0.88641149
O        6.01227751       2.53568212       7.82746577  T       0.48400508       0.06664091       0.58050678
O        5.26494812       4.08061314       9.81820636  T       0.22732961       0.07565082       0.59409154
O        7.43724373       2.46764565      10.01658262  T       0.37345788       0.22595548      -0.42360453
O        6.72487718       0.23228553      11.27704801  T      -1.10391252       0.29944867       0.27290048
O        7.46169437       4.81415320       8.77259892  T      -0.23171071      -0.21810805      -1.18572388
O        8.02558019       9.83187354       6.64908801  T      -0.14989795       0.51528343       0.37718483
O        4.04397997       7.09881611       6.87161595  T       0.07618807       0.03324636      -0.15716828
O        4.07462381       9.61694227      11.13831208  T       0.67367932       0.52267489      -0.61554408
O        3.03261947       8.28786576       8.86784977  T      -0.36136586      -0.16378046       0.59902006
O        1.54755502       6.58885371       7.25597693  T      -0.05059055      -0.01459634      -2.51927242
O        3.26949467       5.67787092       9.10027980  T      -0.75689629       0.10013232       0.61666333
O        0.14578926       6.31782063       9.51179417  T       0.71318412      -1.29756018       0.13478958
O        2.32960392       7.38380037      11.16081607  T       0.15099357      -0.20872999       0.38400658
O        4.95143366       7.31292858      10.39792971  T      -0.36498262      -0.88589503       0.73837187
O        8.28743346       0.01535194       9.22567748  T       1.04584331      -0.78132345       0.27852380
O        7.50158241       7.16860948      11.29461409  T       0.31340992      -0.35378884       0.30199012
O        6.23149306       5.53994321       6.84276900  T       0.23733785       0.41554649      -0.35104593
O        5.83728806       9.86090842       7.96506100  T       0.62482081      -0.11697062      -0.20554052
O        8.95810447       6.12803635       7.16189790  T       0.28030073       0.82852204      -0.72075921
O        7.16584247       7.65345891       8.20347609  T      -0.56142883      -0.16407716       0.35066932
O        3.55000000       4.18000000       1.53000000  F       0.00000000       0.00000000       0.00000000
O        1.14000000       4.89000000       1.35000000  F       0.00000000       0.00000000       0.00000000
O        9.29000000       1.31000000       1.44000000  F       0.00000000       0.00000000       0.00000000
O        6.84000000       0.20000000       1.30000000  F       0.00000000       0.00000000       0.00000000
O        3.95000000       9.60000000       1.25000000  F       0.00000000       0.00000000       0.00000000
O        2.28000000       7.42000000       1.08000000  F       0.00000000       0.00000000       0.00000000
O        7.52000000       7.21000000       1.37000000  F       0.00000000       0.00000000       0.00000000
Si       2.08458651       3.97715920      12.37438085  T      -1.24037453       0.57936463       0.87825367
Si       2.90333584       3.65196249      15.01426897  T      -0.25285829       0.54463085      -0.71969527
Si       0.82311604       1.11219926      11.65471752  T      -0.06519723      -0.97197308      -1.72158803
Si       8.35065039       1.01859103      15.64012006  T       0.60544142      -0.42062747       1.00666030
Si       5.56126423       2.09253940      14.45896979  T       0.46762826       0.90454664       0.51836747
Si       4.76471067       5.80636296      16.12703775  T      -0.10945113      -1.28684534       0.15726295
Si       0.02425730       9.18522481      13.86033733  T       0.35133590       0.88226837      -1.06308836
Si       6.20782233       5.15258392      13.62988438  T       0.50088718      -0.01392950       0.38569757
Si       5.35213538       9.85897318      12.19117635  T      -0.99728213       1.54147548       0.38089469
Si       8.40242714       7.02404390      12.66677972  T       0.55203080      -0.29487942      -0.86251825
Si       3.15783635       4.30056376      20.23196144  T       0.48065659      -0.61928234       0.06672933
Si       2.10322290       1.51390111      19.06007726  T       0.07639132       1.22783019       0.20628928
Si       0.48564647       2.71691271      16.88935280  T       0.64436827       1.25624261       0.20557987
Si       4.96842204       1.55768675      17.63352117  T       0.29809923       0.04224313      -0.20956448
Si       5.96316695       3.72039051      19.62945033  T       0.31101508      -0.15511962      -1.76475927
Si       7.69699607       1.24740664      20.55958070  T      -0.12299183      -0.36813436       0.97312396
Si       2.56191132       8.76899648      20.41555510  T       0.11174886       0.75728914       1.33419410
Si       2.86840083       6.73160535      18.15315610  T      -1.19671080       0.34486942      -0.26404300
Si       1.11030612       6.13343320      21.32542201  T       0.11317084       0.14507253      -0.03368872
Si       0.14163524       5.55957380      18.36930828  T       0.09345910       0.04905122      -1.10705734
Si       6.09357669       9.27526449      22.46270970  T      -0.38291214       1.88265103      -0.96625863
Si       7.07527940       6.25753533      18.18218099  T      -0.75561433      -0.39411014       0.55160668
Si       7.18665443       9.47397920      18.12742752  T       0.17472187       0.00113490      -0.99952186
Si       2.10000000       3.98000000       2.32000000  F       0.00000000       0.00000000       0.00000000
Si       2.86519759       3.65018503       5.00415840  T      -1.05190695       1.04796450      -0.60154916
Si       0.89000000       1.15000000       1.77000000  F       0.00000000       0.00000000       0.00000000
Si       8.41137203       1.06801670       5.62320806  T       1.18042250      -0.78708998       0.35190166
Si       5.53311377       1.99428371       4.42141461  T       0.09780945       0.54816891       0.19498514
Si       4.81137699       5.81135959       6.14497163  T      -0.02666733       0.07454182       0.39507235
Si       0.06882669       9.18651114       3.96638487  T       0.81656966       1.88720886      -0.11821091
Si       6.19724797       5.11857730       3.61600472  T       0.29953996      -1.03201944      -0.09821274
Si       5.42000000       9.77000000       2.06000000  F       0.00000000       0.00000000       0.00000000
Si       8.44372349       7.02067858       2.74816398  T      -0.00913690      -0.07923076      -0.14849573
Si       3.67226452       4.27854660       9.91033353  T      -1.41126874       0.42115560      -0.74138626
Si       2.24920505       1.62699363       8.96152237  T      -0.67380825       0.19725843      -0.10856572
Si       0.51075801       2.81064990       7.00074034  T       1.32582583      -0.57374657       0.91594582
Si       5.06052214       1.22718541       7.47251567  T       1.53464591      -0.30343898       0.10794188
Si       6.56955522       3.46572433       9.08348659  T       0.04332154      -0.17732157       1.03553934
Si       7.87241091       0.95841293      10.46717726  T      -1.20106924       0.53563427      -0.20446091
Si       3.53177113       8.20932867      10.41850928  T      -0.30372969      -0.57804732      -0.22883606
Si       2.95896635       6.88750393       8.02645558  T       0.09215077      -0.36601238       0.37058299
Si       0.90692275       6.40876547      11.01658624  T       0.04125242      -0.80008919      -0.59619096
Si       0.29528010       5.78223927       7.95461403  T      -0.04559388       0.05243871       0.64819708
Si       5.88792859       7.06275245      11.61838930  T       0.14905664      -0.03582917       0.90855990
Si       7.41525628       6.09545277       7.78246996  T       0.10975786       0.16748220       0.14133325
Si       7.36229462       9.28711002       8.03399799  T      -0.72426887       0.27171313      -0.27112411
Si       7.93000000       1.02000000       0.50000000  F       0.00000000       0.00000000       0.00000000
Si       0.91000000       6.44000000       0.98000000  F       0.00000000       0.00000000       0.00000000
Si       5.91000000       7.08000000       1.49000000  F       0.00000000       0.00000000       0.00000000
C        5.02189034       4.99484973      23.17776111  T      -0.60567355      -0.06460918     -13.23830102
F        5.78277825       6.06140153      23.19002674  T       0.26147822       0.13635911     -20.80112553
F        5.78116000       3.94766400      23.19352037  T       0.28541082      -0.11660803     -20.70188642
153
Lattice="10.0 0.0 0.0 0.0 10.0 0.0 0.0 0.0 43.74" Properties=species:S:1:pos:R:3:move_mask:L:1:momenta:R:3 etch=trj_CF2_30eV_case1 idx=0 index=0 source=trj_CF2_30eV_case1/0000/OUTCAR converged=T time_fs=34.0 pbc="T T T"
O        2.17852312       4.63503757      13.88552978  T      -0.26555111      -0.30185238       0.09425173
O        1.43968247       2.45717237      12.31518377  T      -0.37317713       0.15302583      -1.24117749
O        3.82703158       2.57111740      14.27293347  T      -0.48629062      -0.24396968       0.11062707
O        3.72107271       4.50297978      16.12059801  T      -0.38210170      -0.52511001       0.25538144
O        1.76151507       2.89390779      15.87134346  T       0.17108981      -0.28615911       0.16568853
O        5.04367864       1.71990419      16.00875066  T      -0.04131082       0.30408312       0.46410647
O        5.03992617       0.95638652      13.30327635  T      -0.60293448       0.77870195       0.41164391
O        6.14767608       3.62339390      14.04101677  T      -0.11839633      -0.13208627      -0.15981831
O        7.12450413       1.47300672      14.74498782  T       0.94587794       0.76138647       0.55081673
O        8.96648973       2.33013733      16.43216071  T      -0.83790088       0.60394848       0.66393421
O        9.64109810       0.43304162      14.80511857  T       0.42643300       0.70573871       0.86991569
O        0.91693277       9.77453613      12.60019353  T      -0.29962240       0.39139460      -0.13967357
O        1.11030306       8.17358949      14.67699642  T      -0.13722993      -0.99152919       0.81420306
O       10.00415161       6.90690802      12.25431920  T       0.46550396      -0.71036758       1.14974211
O        5.32522287       6.10837428      14.63097365  T       0.91154552      -1.19239379       0.54895476
O        5.64819037       5.51726035      12.10660083  T      -0.00279156      -0.86556826      -0.47483787
O        7.72742487       5.85051534      13.61738514  T      -0.29711149       0.34250461      -0.51569257
O        5.59234051       8.24424921      12.69950382  T       0.03059712       0.47458494       1.68791541
O        8.62200942       8.36157489      13.60597532  T      -0.05466733       0.13838979      -0.39404842
O        2.43775005       5.12306152      21.46552314  T      -0.04084674      -0.60659106      -0.75872225
O        0.23311691       6.12983762      22.68262787  T       0.56220192      -0.57972406      -1.33359303
O        1.88943104       0.21536499      20.08091287  T       0.28790847       0.81332271       0.35761346
O        2.29820630       2.84929935      19.93939127  T       1.29955346      -0.49572208       0.15298034
O        3.46501482       1.30337947      18.19908181  T       0.57594073       0.27084625      -0.57883531
O        0.80985454       1.60959786      18.06162200  T      -0.56218613       0.23149996       0.32903962
O        0.39035961       4.06303810      17.79933568  T      -0.41404150       0.49733700       0.45985634
O        9.08424381       1.38979004      21.44322460  T      -0.22721636       0.41296940       0.01652815
O        5.46418435       3.04488883      18.23189427  T       0.67439776      -0.08785055      -0.60626169
O        4.68490903       3.92266720      20.66247682  T       0.54298432      -0.25138113       0.45547145
O        7.06885934       2.74516295      20.34976655  T       0.09915068       0.29198015       0.58003589
O        6.47723350       0.50175973      21.49637229  T       0.84850260       0.13392071       0.53803906
O        6.60557654       5.23417449      19.37422480  T      -0.26931955      -0.19090124       0.05074190
O        7.92996925       9.82153839      16.75964015  T       0.14600430       0.54482310       0.07097297
O        3.83537715       6.95972071      16.82915417  T      -0.14575862      -0.53009933      -0.11315958
O        3.81992219       9.38272904      21.37122727  T       0.34581884      -0.24291839      -0.71135652
O        3.25682773       8.00868679      19.12523965  T       0.23765475       0.24563386       0.11277804
O        1.30223473       6.64074987      17.76964673  T       0.21324575      -0.46791606       0.86788293
O        3.21101961       5.28898106      18.89793155  T       0.20677715      -0.07631462       0.86818361
O        0.18549477       5.58472472      19.99153852  T      -0.99865469       0.56256716      -0.17629898
O        1.52934148       7.76729776      21.16183358  T       0.03326900      -0.21509561       0.75945240
O        4.67851889       8.37135681      21.99841679  T      -1.17826202      -1.10106673       0.41926626
O        8.05796730       0.20622659      19.35628518  T       0.31501569       0.14979451      -0.15333235
O        6.86824075       8.79014485      23.68034927  T      -0.40078505      -0.70975223      -0.17720409
O        6.17802093       5.80898606      16.90308593  T      -0.24582763       0.10083297       0.40790923
O        5.72348040       0.21784351      18.21785864  T      -0.32185650      -0.31250024      -0.01448499
O        8.67803957       6.06559625      17.92178075  T      -0.17086027       0.50599439      -0.03560328
O        6.94172086       7.86241422      18.40360271  T      -0.47721100       0.15726999       0.21434800
O        2.05947211       4.63186501       3.85561379  T      -0.71040401      -1.12543016       0.08083872
O        1.54829412       2.48842493       2.17282342  T       0.69818258      -0.03240463      -2.69513594
O        3.86328547       2.68345061       4.16254435  T      -0.67352475       0.21565898      -0.01199913
O        3.81153283       4.56614878       6.13130151  T       0.20486590      -0.62768075      -0.47224781
O        1.63358871       2.95971243       5.79463363  T      -0.42295389       0.41051028       0.03929128
O        4.91815593       1.32777948       5.88687994  T       0.53428481       0.29331958      -0.26578452
O        5.21228804       0.91839131       3.16940394  T       0.43030304       0.54556418      -0.37783214
O        6.18812782       3.57988436       4.03589395  T       0.11705617      -0.43250300      -0.60784742
O        7.11272721       1.56763698       4.82424412  T       1.23275112       1.14610741       1.05962209
O        9.06325413       2.28998310       6.37711448  T      -0.22628540      -0.10779283       1.00080059
O        9.65540794       0.60395172       4.62172396  T       0.16851394       0.94408252      -0.84137465
O        1.01063939       9.71860160       2.50062014  T       0.68742967      -0.36288678      -0.26377594
O        1.13801071       8.10672305       4.65140646  T       0.22030677      -1.48984563       0.74691306
O        9.87000000       6.98000000       2.02000000  F       0.00000000       0.00000000       0.00000000
O        5.32629058       6.03876407       4.62043297  T       0.95883893      -0.47831599       0.17829716
O        5.59000000       5.63000000       2.17000000  F       0.00000000       0.00000000       0.00000000
O        7.72883016       5.81597979       3.58968099  T      -0.06142843      -0.05162758      -0.39109923
O        5.57989249       8.22838111       2.51053330  T      -0.41171789      -0.48312440       0.49741167
O        8.65787771       8.42674766       3.57470541  T       0.35388863       0.56887889      -0.15253495
O        3.48506886       4.13827576      11.54047495  T       0.08837514      -0.31696006       0.60706009
O        1.11096462       4.85973975      11.40396497  T      -0.22608826      -0.07356751       0.41078839
O        1.76411575       0.87269262      10.28385079  T       0.15797013      -0.56632801      -0.58604661
O        2.69571238       3.15008257       9.26432939  T      -0.57603179       0.78314304      -0.42157718
O        3.65020119       1.04870395       8.24740152  T      -0.03175486       0.71971582       0.78777891
O        0.94230872       1.60537875       7.97763037  T      -0.57885594      -0.06354972       0.27031064
O        0.45224521       4.18054652       7.83422146  T       0.20869671      -0.41073742      -0.56693759
O        9.27543129       1.30232028      11.27948002  T      -0.34431841      -0.36507779      -0.90909978
O        6.01525577       2.53623355       7.83119002  T       0.48523972       0.11151870       0.63175138
O        5.26628880       4.08098193       9.82171029  T       0.20611458       0.04501835       0.54721596
O        7.43947714       2.46907117      10.01398395  T       0.35476145       0.23756949      -0.42152725
O        6.71760334       0.23397830      11.27916595  T      -1.26171132       0.25409126       0.41423534
O        7.46035202       4.81258601       8.76564329  T      -0.20501527      -0.29340272      -1.07837289
O        8.02491877       9.83497650       6.65113945  T      -0.06525981       0.49399542       0.29095464
O        4.04494023       7.09867388       6.87023655  T       0.23510464      -0.07910012      -0.29005660
O        4.07860003       9.62005748      11.13449349  T       0.62000077       0.49021365      -0.62910047
O        3.03033698       8.28692384       8.87152753  T      -0.38253283      -0.14375921       0.59640228
O        1.54717452       6.58867608       7.24073441  T      -0.07202261      -0.04388214      -2.44116057
O        3.26481477       5.67824724       9.10411520  T      -0.76789903       0.02404102       0.63130746
O        0.15047468       6.30997342       9.51294547  T       0.81219331      -1.25759319       0.23987406
O        2.32999050       7.38222972      11.16321313  T      -0.02550170      -0.30288740       0.39645541
O        4.94867804       7.30762692      10.40186110  T      -0.53239925      -0.84033637       0.54264836
O        8.29364627       0.01018866       9.22704982  T       0.97535810      -0.89915639       0.16982901
O        7.50367050       7.16646956      11.29659905  T       0.36515534      -0.34276599       0.34278692
O        6.23292645       5.54254479       6.84063291  T       0.22942976       0.43189633      -0.34437441
O        5.84112780       9.86020357       7.96393710  T       0.62263861      -0.11166280      -0.16041751
O        8.95931773       6.13328152       7.15730378  T       0.11587841       0.87935228      -0.77329393
O        7.16247724       7.65260665       8.20566404  T      -0.53461426      -0.11258725       0.36195937
O        3.55000000       4.18000000       1.53000000  F       0.00000000       0.00000000       0.00000000
O        1.14000000       4.89000000       1.35000000  F       0.00000000       0.00000000       0.00000000
O        9.29000000       1.31000000       1.44000000  F       0.00000000       0.00000000       0.00000000
O        6.84000000       0.20000000       1.30000000  F       0.00000000       0.00000000       0.00000000
O        3.95000000       9.60000000       1.25000000  F       0.00000000       0.00000000       0.00000000
O        2.28000000       7.42000000       1.08000000  F       0.00000000       0.00000000       0.00000000
O        7.52000000       7.21000000       1.37000000  F       0.00000000       0.00000000       0.00000000
Si       2.08022474       3.97911978      12.37732292  T      -1.25125311       0.53941189       0.80163375
Si       2.90247227       3.65379810      15.01175562  T      -0.24078548       0.50260961      -0.71594142
Si       0.82307259       1.10881737      11.64853923  T       0.03919377      -0.95938259      -1.81068304
Si       8.35277065       1.01703926      15.64376005  T       0.60722213      -0.46367850       1.07487254
Si       5.56265459       2.09563027      14.46077169  T       0.32780214       0.86151877       0.51285324
Si       4.76418856       5.80189086      16.12749621  T      -0.18935537      -1.27006232       0.10607058
Si       0.02559305       9.18820305      13.85660073  T       0.41160789       0.81991148      -1.06875284
Si       6.20957712       5.15277717      13.63111924  T       0.50246981       0.12276967       0.31781303
Si       5.34874790       9.86411081      12.19233240  T      -0.93986702       1.39480820       0.28222122
Si       8.40448156       7.02298573      12.66383653  T       0.62314333      -0.30959738      -0.81781352
Si       3.15926636       4.29823788      20.23207276  T       0.33776938      -0.71035247      -0.00331515
Si       2.10348804       1.51803225      19.06080488  T       0.07628967       1.13093910       0.20675166
Si       0.48797510       2.72132418      16.89023748  T       0.68343092       1.26413830       0.29973416
Si       4.96936374       1.55789553      17.63265949  T       0.24113402       0.07620712      -0.28278727
Si       5.96434590       3.71997466      19.62326807  T       0.36385852      -0.08393881      -1.76736052
Si       7.69651178       1.24601640      20.56321383  T      -0.15299896      -0.42513228       1.10111516
Si       2.56239349       8.77173005      20.42011031  T       0.16238873       0.80447074       1.26811060
Si       2.86439559       6.73284381      18.15215531  T      -1.08833991       0.36285680      -0.30543910
Si       1.11061164       6.13396462      21.32517485  T       0.06278860       0.15725663      -0.11169463
Si       0.14204233       5.55979861      18.36529283  T       0.13685801       0.08132897      -1.18497796
Si       6.09214864       9.28179425      22.45923252  T      -0.43402007       1.84427808      -1.01594158
Si       7.07275276       6.25609608      18.18402133  T      -0.68766332      -0.42673235       0.50032219
Si       7.18717098       9.47396793      18.12412196  T       0.11946658      -0.00763952      -0.88745317
Si       2.10000000       3.98000000       2.32000000  F       0.00000000       0.00000000       0.00000000
Si       2.86171923       3.65402727       5.00215573  T      -0.93616020       1.14650699      -0.54221563
Si       0.89000000       1.15000000       1.77000000  F       0.00000000       0.00000000       0.00000000
Si       8.41526619       1.06508641       5.62439193  T       1.04645967      -0.88506575       0.32610956
Si       5.53324037       1.99623648       4.42221172  T      -0.02342296       0.56769351       0.26024102
Si       4.81128373       5.81184828       6.14626407  T      -0.02579680       0.20324641       0.34219132
Si       0.07197690       9.19294162       3.96584634  T       0.98590936       1.78507008      -0.18974439
Si       6.19833169       5.11504772       3.61581442  T       0.32013257      -0.98485770      -0.01195380
Si       5.42000000       9.77000000       2.06000000  F       0.00000000       0.00000000       0.00000000
Si       8.44354251       7.02049857       2.74769408  T      -0.09396191      -0.02246284      -0.11965407
Si       3.66731218       4.28004436       9.90778640  T      -1.41638203       0.43362277      -0.71039376
Si       2.24713196       1.62762652       8.96100989  T      -0.51038686       0.16613197      -0.18500592
Si       0.51532082       2.80857924       7.00370482  T       1.27926213      -0.60977683       0.77582141
Si       5.06599757       1.22607144       7.47296488  T       1.59299004      -0.33165832       0.14888011
Si       6.56964196       3.46509132       9.08706271  T       0.00549374      -0.18256858       1.00758233
Si       7.86848176       0.96054206      10.46649563  T      -1.04581244       0.67778502      -0.18597618
Si       3.53088283       8.20735696      10.41779261  T      -0.20268341      -0.54819479      -0.17780547
Si       2.95920685       6.88624152       8.02780790  T       0.04297657      -0.35545601       0.39916777
Si       0.90725765       6.40606099      11.01435873  T       0.15013865      -0.74495045      -0.67313703
Si       0.29520538       5.78253146       7.95694901  T       0.00343272       0.11330003       0.68117856
Si       5.88861170       7.06248616      11.62171239  T       0.24050149      -0.11539221       0.99385163
Si       7.41584773       6.09607687       7.78289686  T       0.22850743       0.19002497       0.10094518
Si       7.35972791       9.28812180       8.03308244  T      -0.73901177       0.30462320      -0.25066217
Si       7.93000000       1.02000000       0.50000000  F       0.00000000       0.00000000       0.00000000
Si       0.91000000       6.44000000       0.98000000  F       0.00000000       0.00000000       0.00000000
Si       5.91000000       7.08000000       1.49000000  F       0.00000000       0.00000000       0.00000000
C        5.01647157       4.99451565      23.06953314  T      -0.71338165      -0.01775232     -13.22878555
F        5.78423272       6.06205914      23.08246633  T       0.29877545       0.11556241     -20.80633485
F        5.78287059       3.94693543      23.08655589  T       0.37410119      -0.16237500     -20.67296737
153
Lattice="10.0 0.0 0.0 0.0 10.0 0.0 0.0 0.0 43.74" Properties=species:S:1:pos:R:3:move_mask:L:1:momenta:R:3 etch=trj_CF2_30eV_case1 idx=0 index=0 source=trj_CF2_30eV_case1/0000/OUTCAR converged=T time_fs=35.0 pbc="T T T"
O        2.17691083       4.63296516      13.88599109  T      -0.26056548      -0.37151728       0.05654518
O        1.43743767       2.45825992      12.30775614  T      -0.35867368       0.20005917      -1.17846770
O        3.82399313       2.57001986      14.27347098  T      -0.50313223      -0.11310578       0.06477155
O        3.71912037       4.50008873      16.12224539  T      -0.25378193      -0.41635430       0.28108323
O        1.76200979       2.89196483      15.87250216  T      -0.00902847      -0.34562837       0.21102618
O        5.04353063       1.72164457      16.01222205  T      -0.00610823       0.26327550       0.66298562
O        5.03659500       0.96103276      13.30572650  T      -0.48159377       0.73376470       0.38570386
O        6.14694743       3.62235937      14.04003250  T      -0.11862199      -0.20355435      -0.16107491
O        7.13037915       1.47757904      14.74821970  T       0.96509548       0.72824322       0.50104112
O        8.96149545       2.33385717      16.43607476  T      -0.78586167       0.60815823       0.61194834
O        9.64361736       0.43743568      14.81050436  T       0.39640305       0.72184487       0.88134157
O        0.91498338       9.77691490      12.59942803  T      -0.33433435       0.38349147      -0.11075933
O        1.10933339       8.16757391      14.68193906  T      -0.18050447      -0.96603696       0.79427791
O       10.00667448       6.90255737      12.26123643  T       0.35823944      -0.70747313       1.10053571
O        5.33057204       6.10094913      14.63436324  T       0.82952527      -1.22474343       0.55555455
O        5.64826093       5.51200706      12.10406098  T       0.02646377      -0.84384959      -0.35149440
O        7.72579393       5.85261463      13.61412195  T      -0.23349756       0.34101891      -0.54671273
O        5.59251739       8.24769322      12.71003154  T       0.02727910       0.64471580       1.73744410
O        8.62166518       8.36263362      13.60351300  T      -0.05643223       0.20699582      -0.40815142
O        2.43733628       5.11946363      21.46066555  T      -0.09508673      -0.56454767      -0.82247981
O        0.23648638       6.12622002      22.67454028  T       0.53300371      -0.59883798      -1.29692335
O        1.89120823       0.22037749      20.08291851  T       0.29123563       0.81822860       0.29600937
O        2.30647550       2.84703747      19.94059449  T       1.39356887      -0.24044251       0.23945522
O        3.46853097       1.30505398      18.19542281  T       0.56515355       0.27496583      -0.61088296
O        0.80666630       1.61086017      18.06369278  T      -0.47519531       0.18060230       0.34582747
O        0.38778185       4.06645460      17.80213244  T      -0.42462346       0.61264265       0.44958665
O        9.08284393       1.39236482      21.44327404  T      -0.22787888       0.42571541       0.00021324
O        5.46837529       3.04411417      18.22819205  T       0.69057803      -0.16384634      -0.59958882
O        4.68832161       3.92111978      20.66511943  T       0.56711192      -0.25246725       0.40201949
O        7.06949017       2.74687647      20.35314893  T       0.10578315       0.26565195       0.52099662
O        6.48248017       0.50259972      21.49951804  T       0.85949346       0.14134889       0.48532410
O        6.60382846       5.23281287      19.37468329  T      -0.29974700      -0.25176841       0.09871569
O        7.93105646       9.82503634      16.75963899  T       0.20791635       0.59293678      -0.07062037
O        3.83432251       6.95642397      16.82864515  T      -0.19809766      -0.54387047      -0.05277747
O        3.82193443       9.38132278      21.36686135  T       0.31073099      -0.21470449      -0.70939805
O        3.25805832       8.01015145      19.12601653  T       0.16193991       0.23105695       0.14029613
O        1.30312446       6.63770417      17.77502847  T       0.07498833      -0.52316424       0.88315447
O        3.21233899       5.28843444      18.90344702  T       0.22267425      -0.09960450       0.92575057
O        0.17977804       5.58837408      19.99099076  T      -0.86284104       0.62616887      -0.00358166
O        1.52952661       7.76558745      21.16647245  T       0.02883162      -0.33936721       0.75038033
O        4.67168215       8.36482967      22.00108619  T      -1.04696882      -1.02280245       0.45015584
O        8.05974270       0.20718473      19.35530637  T       0.26233689       0.16261214      -0.16497508
O        6.86573336       8.78575819      23.67930345  T      -0.41835341      -0.71742361      -0.16706832
O        6.17668635       5.80944092      16.90581062  T      -0.18985345       0.04686093       0.47894053
O        5.72160278       0.21603599      18.21765733  T      -0.28886934      -0.27620532      -0.05132206
O        8.67687374       6.06867145      17.92146138  T      -0.20880504       0.49552292      -0.06854937
O        6.93875259       7.86370842      18.40498894  T      -0.48939482       0.26284620       0.23682490
O        2.05522233       4.62453182       3.85590408  T      -0.67510633      -1.26107601       0.01284390
O        1.55261194       2.48797934       2.15630571  T       0.70913895      -0.11151637      -2.68494326
O        3.85903405       2.68494011       4.16257785  T      -0.71046823       0.26905792       0.02264571
O        3.81219476       4.56176146       6.12813632  T       0.01237140      -0.79838586      -0.55796893
O        1.63096276       2.96219867       5.79500646  T      -0.43115954       0.39924101       0.08148693
O        4.92139357       1.32967635       5.88489676  T       0.52022549       0.32381526      -0.37707081
O        5.21516222       0.92166581       3.16716749  T       0.50607181       0.52135987      -0.34978868
O        6.18879384       3.57718483       4.03195922  T       0.09970212      -0.44731533      -0.67369523
O        7.12055118       1.57441281       4.83065540  T       1.31154229       1.06157608       1.02694341
O        9.06233814       2.29000240       6.38369825  T      -0.07163816       0.11201002       1.14288915
O        9.65641577       0.60961254       4.61651728  T       0.16054730       0.89988681      -0.85411205
O        1.01476638       9.71651786       2.49925620  T       0.65674256      -0.31486627      -0.18036248
O        1.13904216       8.09794020       4.65583393  T       0.11387204      -1.36842911       0.69392139
O        9.87000000       6.98000000       2.02000000  F       0.00000000       0.00000000       0.00000000
O        5.33200724       6.03600370       4.62145159  T       0.90208186      -0.42057229       0.15441368
O        5.59000000       5.63000000       2.17000000  F       0.00000000       0.00000000       0.00000000
O        7.72870573       5.81568529       3.58721435  T       0.02107750      -0.04468012      -0.41200960
O        5.57725676       8.22556133       2.51408572  T      -0.44674840      -0.43370453       0.65891549
O        8.65994520       8.43016222       3.57377323  T       0.32044793       0.54290704      -0.15118667
O        3.48549639       4.13633349      11.54417225  T       0.04966792      -0.31530905       0.59538917
O        1.10957138       4.85921172      11.40646738  T      -0.22840231      -0.09806939       0.40353600
O        1.76488110       0.86900814      10.28061328  T       0.09140696      -0.63404752      -0.46840718
O        2.69218858       3.15508783       9.26173729  T      -0.57334407       0.84466534      -0.42348542
O        3.64962432       1.05325368       8.25233985  T      -0.15206184       0.76170642       0.81835162
O        0.93897084       1.60486885       7.97940339  T      -0.50692706      -0.10428871       0.30877816
O        0.45352138       4.17799941       7.83081464  T       0.20648787      -0.41444880      -0.54086562
O        9.27296296       1.29998134      11.27384244  T      -0.45742319      -0.39678299      -0.92617478
O        6.01822520       2.53703466       7.83521203  T       0.48094051       0.14764779       0.67721340
O        5.26744601       4.08117154       9.82492490  T       0.16771810       0.01730261       0.49991697
O        7.44160682       2.47055382      10.01142097  T       0.33966957       0.24451535      -0.41198700
O        6.70943057       0.23543010      11.28210077  T      -1.39552139       0.22149937       0.53804828
O        7.45918277       4.81054309       8.75937303  T      -0.17529183      -0.37252869      -0.96289997
O        8.02478032       9.83792255       6.65266206  T       0.02014379       0.46394421       0.20544233
O        4.04684649       7.09785180       6.86808043  T       0.38342936      -0.18781328      -0.40935404
O        4.08222073       9.62294285      11.13058052  T       0.55791374       0.44795146      -0.64616915
O        3.02791858       8.28609284       8.87514609  T      -0.40563313      -0.12773369       0.57974771
O        1.54668474       6.58830951       7.22605054  T      -0.08612320      -0.07596390      -2.33755202
O        3.26006222       5.67818455       9.10801569  T      -0.78062414      -0.04246506       0.63761476
O        0.15575160       6.30238942       9.51473229  T       0.90563327      -1.21192226       0.34112560
O        2.32929042       7.38008424      11.16567866  T      -0.20218973      -0.39544681       0.40602478
O        4.94490631       7.30261560      10.40460392  T      -0.69458683      -0.79184410       0.35262315
O        8.29938296       0.00432898       9.22777949  T       0.89078718      -1.00768020       0.06978608
O        7.50604768       7.16440605      11.29880372  T       0.40725773      -0.32890732       0.37343492
O        6.23430863       5.54524590       6.83854487  T       0.22067902       0.44791913      -0.33536286
O        5.84489798       9.85954793       7.96309232  T       0.60195921      -0.10082507      -0.11471423
O        8.95954263       6.13882523       7.15242943  T      -0.04061904       0.92560326      -0.81181788
O        7.15927964       7.65208503       8.20791930  T      -0.50687222      -0.05662406       0.37255497
O        3.55000000       4.18000000       1.53000000  F       0.00000000       0.00000000       0.00000000
O        1.14000000       4.89000000       1.35000000  F       0.00000000       0.00000000       0.00000000
O        9.29000000       1.31000000       1.44000000  F       0.00000000       0.00000000       0.00000000
O        6.84000000       0.20000000       1.30000000  F       0.00000000       0.00000000       0.00000000
O        3.95000000       9.60000000       1.25000000  F       0.00000000       0.00000000       0.00000000
O        2.28000000       7.42000000       1.08000000  F       0.00000000       0.00000000       0.00000000
O        7.52000000       7.21000000       1.37000000  F       0.00000000       0.00000000       0.00000000
Si       2.07584902       3.98091894      12.37997411  T      -1.24841927       0.48717853       0.71207657
Si       2.90165191       3.65546438      15.00927172  T      -0.22837894       0.44792416      -0.70237127
Si       0.82338197       1.10550339      11.64205719  T       0.13606542      -0.93309825      -1.89487460
Si       8.35489883       1.01536610      15.64763809  T       0.60986780      -0.48982244       1.14244535
Si       5.56355968       2.09855700      14.46256276  T       0.19024022       0.81054539       0.51242285
Si       4.76338637       5.79748171      16.12778755  T      -0.26904388      -1.25071008       0.06204667
Si       0.02713019       9.19095584      13.85289051  T       0.46614277       0.75366530      -1.04784151
Si       6.21133711       5.15343027      13.63209405  T       0.50406639       0.24811862       0.23765229
Si       5.34555970       9.86872211      12.19316345  T      -0.88367521       1.24106533       0.19540360
Si       8.40678829       7.02188255      12.66107517  T       0.69633480      -0.32040405      -0.75846121
Si       3.16020343       4.29559811      20.23193677  T       0.19887553      -0.79844627      -0.07472832
Si       2.10376356       1.52179367      19.06150687  T       0.08259332       1.01730350       0.19204994
Si       0.49040386       2.72574227      16.89144657  T       0.70129813       1.26009561       0.39126759
Si       4.97011378       1.55821382      17.63154695  T       0.18874560       0.10469456      -0.35246465
Si       5.96571616       3.71979531      19.61710684  T       0.42037991      -0.02011597      -1.75244604
Si       7.69593151       1.24444337      20.56726271  T      -0.17781946      -0.47251574       1.21058370
Si       2.56303675       8.77461458      20.42441180  T       0.20346394       0.84328884       1.18949846
Si       2.86081696       6.73414008      18.15103661  T      -0.95343758       0.37770171      -0.33125411
Si       1.11075328       6.13452405      21.32461768  T       0.01965884       0.16107252      -0.21074328
Si       0.14257721       5.56015404      18.36104595  T       0.16622213       0.12397135      -1.23862496
Si       6.09053996       9.28812447      22.45564005  T      -0.48587178       1.76871590      -1.03199660
Si       7.07047762       6.25456385      18.18567926  T      -0.61202010      -0.44702420       0.44768963
Si       7.18748428       9.47392669      18.12123630  T       0.05889946      -0.01556850      -0.76029870
Si       2.10000000       3.98000000       2.32000000  F       0.00000000       0.00000000       0.00000000
Si       2.85865332       3.65818801       5.00037432  T      -0.81661472       1.22968389      -0.47493702
Si       0.89000000       1.15000000       1.77000000  F       0.00000000       0.00000000       0.00000000
Si       8.41869598       1.06184920       5.62549668  T       0.91612904      -0.96156164       0.30714473
Si       5.53296213       1.99825014       4.42323055  T      -0.13351204       0.58304080       0.32143663
Si       4.81120063       5.81276781       6.14735436  T      -0.02117459       0.31963570       0.27936145
Si       0.07572734       9.19897037       3.96505751  T       1.15913041       1.65797603      -0.26135652
Si       6.19948738       5.11169683       3.61591267  T       0.34079916      -0.92985292       0.06659267
Si       5.42000000       9.77000000       2.06000000  F       0.00000000       0.00000000       0.00000000
Si       8.44306950       7.02052879       2.74732983  T      -0.17580047       0.04102270      -0.08822661
Si       3.66238178       4.28156967       9.90539205  T      -1.39882442       0.43684155      -0.65406941
Si       2.24564026       1.62816472       8.96022718  T      -0.34206737       0.14322550      -0.26242132
Si       0.51968426       2.80638804       7.00614897  T       1.21243690      -0.64259295       0.61905410
Si       5.07164428       1.22487727       7.47355566  T       1.63234269      -0.34908513       0.18851468
Si       6.56958931       3.46445976       9.09052444  T      -0.03630574      -0.17640671       0.97033271
Si       7.86509227       0.96312756      10.46587291  T      -0.89345726       0.79577440      -0.17065325
Si       3.53035981       8.20550073      10.41728410  T      -0.09574716      -0.51224695      -0.10981717
Si       2.95925509       6.88502000       8.02922646  T      -0.01706742      -0.34263912       0.40830486
Si       0.90797168       6.40356243      11.01190521  T       0.25786484      -0.68261475      -0.72491302
Si       0.29530526       5.78302293       7.95934463  T       0.05353372       0.16607056       0.68288921
Si       5.88960213       7.06195350      11.62535087  T       0.32394451      -0.18746405       1.08791420
Si       7.41685340       6.09678489       7.78316656  T       0.34608870       0.21522002       0.05186947
Si       7.35715203       9.28922736       8.03225362  T      -0.72928272       0.32520291      -0.22195569
Si       7.93000000       1.02000000       0.50000000  F       0.00000000       0.00000000       0.00000000
Si       0.91000000       6.44000000       0.98000000  F       0.00000000       0.00000000       0.00000000
Si       5.91000000       7.08000000       1.49000000  F       0.00000000       0.00000000       0.00000000
C        5.01031442       4.99454514      22.96139830  T      -0.78504051       0.02357557     -13.21556233
F        5.78584640       6.06257595      22.97487495  T       0.32287468       0.08204873     -20.81337334
F        5.78500859       3.94601136      22.97976988  T       0.45060229      -0.19184293     -20.63200397
153
Lattice="10.0 0.0 0.0 0.0 10.0 0.0 0.0 0.0 43.74" Properties=species:S:1:pos:R:3:move_mask:L:1:momenta:R:3 etch=trj_CF2_30eV_case1 idx=0 index=0 source=trj_CF2_30eV_case1/0000/OUTCAR converged=T time_fs=36.0 pbc="T T T"
O        2.17531436       4.63049373      13.88623023  T      -0.26039554      -0.43177508       0.02202743
O        1.43527133       2.45961482      12.30071192  T      -0.34777723       0.23975945      -1.11642158
O        3.82085859       2.56973135      14.27373209  T      -0.51734243       0.01920895       0.02062098
O        3.71795436       4.49786715      16.12404614  T      -0.12656953      -0.30767855       0.30505118
O        1.76141774       2.88967738      15.87392472  T      -0.18211673      -0.39802126       0.25118659
O        5.04361203       1.72314218      16.01684730  T       0.03346470       0.22516777       0.83882907
O        5.03401784       0.96538575      13.30800459  T      -0.35752793       0.68322389       0.35566936
O        6.14622332       3.62091193      14.03903536  T      -0.11686263      -0.26592123      -0.16417607
O        7.13632535       1.48195091      14.75113112  T       0.96905585       0.69613027       0.44655604
O        8.95687182       2.33760880      16.43968421  T      -0.71727079       0.61433999       0.56480065
O        9.64598843       0.44186626      14.81590757  T       0.37825358       0.71766126       0.87554217
O        0.91283876       9.77924606      12.59882134  T      -0.36314763       0.37609690      -0.08817211
O        1.10806879       8.16174740      14.68673368  T      -0.23307388      -0.93011935       0.76613002
O       10.00857146       6.89821448      12.26780144  T       0.26188338      -0.70789601       1.03499936
O        5.33539459       6.09335289      14.63779837  T       0.74014584      -1.24803154       0.56370862
O        5.64852124       5.50691824      12.10229284  T       0.05880189      -0.81190842      -0.22394610
O        7.72456347       5.85469884      13.61067875  T      -0.16688976       0.33749056      -0.57420199
O        5.59267830       8.25213525      12.72079521  T       0.02542456       0.79898530       1.76463445
O        8.62132655       8.36412071      13.60096242  T      -0.05295320       0.27772756      -0.42285332
O        2.43657151       5.11613798      21.45543644  T      -0.15502766      -0.51801928      -0.87965194
O        0.23963696       6.12248324      22.66674438  T       0.49091460      -0.61856216      -1.23859813
O        1.89300923       0.22539856      20.08455115  T       0.29563863       0.81607047       0.23624990
O        2.31530955       2.84634536      19.94233256  T       1.48310100       0.01399870       0.32642970
O        3.47190990       1.30675914      18.19160408  T       0.53120023       0.28081732      -0.63076181
O        0.80403073       1.61182561      18.06587123  T      -0.38238490       0.13496907       0.36405882
O        0.38515660       4.07052736      17.80483912  T      -0.42947995       0.71053065       0.43041992
O        9.08145535       1.39501677      21.44323389  T      -0.22349685       0.43810651      -0.01262779
O        5.47266167       3.04288497      18.22453478  T       0.70551948      -0.23566592      -0.59138632
O        4.69185262       3.91956971      20.66737448  T       0.58074194      -0.25221030       0.32830313
O        7.07015271       2.74841918      20.35615563  T       0.10952715       0.23632465       0.45761911
O        6.48777498       0.50351100      21.50231880  T       0.86403412       0.15689261       0.42593568
O        6.60190116       5.23109478      19.37543600  T      -0.32741242      -0.30649532       0.14612336
O        7.93251696       9.82879898      16.75878642  T       0.26705294       0.63054173      -0.20521611
O        3.83294276       6.95304249      16.82850371  T      -0.25143465      -0.55762006       0.00635741
O        3.82374930       9.38009726      21.36253202  T       0.28168167      -0.18409271      -0.69934496
O        3.25880389       8.01151950      19.12696137  T       0.07980508       0.21415745       0.16730408
O        1.30314396       6.63433832      17.78046998  T      -0.06926012      -0.57191132       0.88743002
O        3.21375033       5.28778122      18.90926938  T       0.23673103      -0.11081125       0.96791731
O        0.17490553       5.59241190      19.99147459  T      -0.72404726       0.68891853       0.15877327
O        1.52971526       7.76316095      21.17103344  T       0.03467129      -0.44785394       0.73393858
O        4.66567956       8.35882164      22.00394155  T      -0.90704648      -0.93203235       0.47960968
O        8.06117903       0.20822636      19.35426544  T       0.20468472       0.17700828      -0.17349087
O        6.86308020       8.78135397      23.67826147  T      -0.44815553      -0.71549132      -0.17583112
O        6.17567751       5.80955681      16.90895734  T      -0.14021480      -0.00954087       0.54499886
O        5.71994202       0.21445301      18.21722634  T      -0.25136268      -0.23935595      -0.08925827
O        8.67547807       6.07167811      17.92093849  T      -0.24547484       0.48363150      -0.10177876
O        6.93571485       7.86562310      18.40650670  T      -0.49983715       0.35872202       0.25720669
O        2.05117020       4.61640520       3.85576306  T      -0.64615628      -1.38364033      -0.05953925
O        1.55701072       2.48707082       2.13986133  T       0.72477347      -0.18271547      -2.67126014
O        3.85457229       2.68674818       4.16281877  T      -0.74180881       0.31921086       0.05538799
O        3.81170642       4.55638339       6.12446066  T      -0.16885363      -0.94927292      -0.63819871
O        1.62830922       2.96461376       5.79562582  T      -0.43167385       0.38744452       0.11931623
O        4.92454214       1.33174689       5.88228647  T       0.50527513       0.34975080      -0.46929369
O        5.21850269       0.92479596       3.16511821  T       0.58211419       0.49861128      -0.31686667
O        6.18935022       3.57438760       4.02762422  T       0.08137663      -0.46426064      -0.73815779
O        7.12878478       1.58067793       4.83683370  T       1.36585580       0.98001268       0.98365078
O        9.06237248       2.29132992       6.39113244  T       0.08199252       0.31697116       1.27680551
O        9.65738644       0.61500100       4.61124301  T       0.15629190       0.85539418      -0.86330233
O        1.01870181       9.71474587       2.49840620  T       0.62511636      -0.26134807      -0.09655316
O        1.13939256       8.08994619       4.65991379  T      -0.00111568      -1.23332161       0.63392851
O        9.87000000       6.98000000       2.02000000  F       0.00000000       0.00000000       0.00000000
O        5.33735431       6.03360259       4.62233789  T       0.83852874      -0.36138015       0.13513430
O        5.59000000       5.63000000       2.17000000  F       0.00000000       0.00000000       0.00000000
O        7.72908918       5.81542625       3.58462677  T       0.10369326      -0.04028448      -0.43036474
O        5.57440923       8.22307045       2.51861285  T      -0.48051345      -0.37654395       0.81449462
O        8.66182155       8.43340955       3.57284864  T       0.29170234       0.51456247      -0.15001277
O        3.48566723       4.13440864      11.54776606  T       0.00496551      -0.31126408       0.57343380
O        1.10815318       4.85854036      11.40891114  T      -0.23428666      -0.12006989       0.39164869
O        1.76524103       0.86490739      10.27809660  T       0.02634758      -0.70159334      -0.35210285
O        2.68865682       3.16042542       9.25912249  T      -0.57866274       0.89115036      -0.42896487
O        3.64837946       1.05804903       8.25742242  T      -0.24870860       0.79951810       0.83447931
O        0.93609921       1.60408169       7.98143634  T      -0.42713408      -0.15359698       0.35475233
O        0.45477515       4.17550446       7.82760015  T       0.20139286      -0.39371044      -0.50436082
O        9.26984227       1.29744891      11.26812105  T      -0.55609003      -0.42807967      -0.93613883
O        6.02114895       2.53802673       7.83949170  T       0.47020915       0.17346523       0.71542872
O        5.26831741       4.08120009       9.82784863  T       0.11327678      -0.00744878       0.45250949
O        7.44365471       2.47206444      10.00893916  T       0.32807489       0.24669051      -0.39513313
O        6.70052500       0.23672751      11.28573020  T      -1.49944267       0.20419170       0.63974473
O        7.45820569       4.80801023       8.75383063  T      -0.14238709      -0.45240121      -0.84174607
O        8.02516442       9.84065437       6.65366878  T       0.10466252       0.42401599       0.12339808
O        4.04961911       7.09637880       6.86524402  T       0.51651191      -0.29073827      -0.51097055
O        4.08543534       9.62554079      11.12655379  T       0.48781837       0.39675977      -0.66599170
O        3.02535264       8.28534700       8.87862005  T      -0.43056323      -0.11606947       0.54942189
O        1.54613148       6.58773968       7.21207716  T      -0.09268829      -0.10993519      -2.21005161
O        3.25522554       5.67774801       9.11192628  T      -0.79534355      -0.09741630       0.63440893
O        0.16158199       6.29510190       9.51711961  T       0.99225985      -1.16112937       0.43476853
O        2.32751562       7.37738246      11.16819046  T      -0.37480119      -0.48358866       0.41126999
O        4.94017315       7.29790407      10.40621610  T      -0.84427803      -0.74318343       0.17564235
O        8.30455806      -0.00216228       9.22792900  T       0.79252140      -1.10449754      -0.01868195
O        7.50864968       7.16243618      11.30116405  T       0.43812091      -0.31227939       0.39343799
O        6.23563487       5.54804371       6.83651970  T       0.21123793       0.46334499      -0.32387168
O        5.84848246       9.85897695       7.96252861  T       0.56209647      -0.08404602      -0.06895204
O        8.95884408       6.14463682       7.14736413  T      -0.18406222       0.96648886      -0.83536626
O        7.15625461       7.65191719       8.21023694  T      -0.47843822       0.00237121       0.38223683
O        3.55000000       4.18000000       1.53000000  F       0.00000000       0.00000000       0.00000000
O        1.14000000       4.89000000       1.35000000  F       0.00000000       0.00000000       0.00000000
O        9.29000000       1.31000000       1.44000000  F       0.00000000       0.00000000       0.00000000
O        6.84000000       0.20000000       1.30000000  F       0.00000000       0.00000000       0.00000000
O        3.95000000       9.60000000       1.25000000  F       0.00000000       0.00000000       0.00000000
O        2.28000000       7.42000000       1.08000000  F       0.00000000       0.00000000       0.00000000
O        7.52000000       7.21000000       1.37000000  F       0.00000000       0.00000000       0.00000000
Si       2.07150650       3.98251493      12.38229078  T      -1.23239517       0.42337817       0.61054090
Si       2.90087381       3.65691838      15.00685591  T      -0.21684396       0.38141953      -0.67659414
Si       0.82401338       1.10230537      11.63529240  T       0.22289533      -0.89310632      -1.97195448
Si       8.35703710       1.01363268      15.65174853  T       0.61292400      -0.49793325       1.20735132
Si       5.56398831       2.10129067      14.46436287  T       0.05541802       0.75103056       0.51819081
Si       4.76231009       5.79314581      16.12793996  T      -0.34555486      -1.22803380       0.02692164
Si       0.02884561       9.19347237      13.84930064  T       0.51329163       0.68506549      -0.99993214
Si       6.21310420       5.15449537      13.63277204  T       0.50670967       0.35758978       0.14873651
Si       5.34256322       9.87278744      12.19371406  T      -0.83058556       1.08310396       0.12212837
Si       8.40935483       7.02075003      12.65854737  T       0.77173369      -0.32616479      -0.68425447
Si       3.16066251       4.29265812      20.23154859  T       0.06466732      -0.88163285      -0.14736227
Si       2.10407423       1.52513549      19.06213452  T       0.09662026       0.89200179       0.16479250
Si       0.49285591       2.73012597      16.89297262  T       0.69654615       1.24457086       0.48117450
Si       4.97069029       1.55862100      17.63020115  T       0.14208505       0.12690469      -0.41559865
Si       5.96729075       3.71982354      19.61102789  T       0.48083325       0.03416119      -1.72099598
Si       7.69527402       1.24272241      20.57166011  T      -0.19706070      -0.50960588       1.30020167
Si       2.56380416       8.77761798      20.42841948  T       0.23307568       0.87218546       1.10050445
Si       2.85775086       6.73548109      18.14985624  T      -0.79612075       0.38822702      -0.34057770
Si       1.11075797       6.13508221      21.32367934  T      -0.01543713       0.15656463      -0.32930409
Si       0.14318802       5.56067821      18.35665926  T       0.18001100       0.17796663      -1.26433048
Si       6.08875071       9.29412726      22.45205064  T      -0.53708110       1.65741492      -1.01435169
Si       7.06847871       6.25298389      18.18715368  T      -0.52995904      -0.45384989       0.39576277
Si       7.18757967       9.47386251      18.11881483  T      -0.00468947      -0.02031448      -0.62294163
Si       2.10000000       3.98000000       2.32000000  F       0.00000000       0.00000000       0.00000000
Si       2.85600792       3.66260984       4.99884260  T      -0.69625173       1.29545579      -0.39940945
Si       0.89000000       1.15000000       1.77000000  F       0.00000000       0.00000000       0.00000000
Si       8.42168545       1.05838938       5.62655037  T       0.79578376      -1.01150887       0.29727227
Si       5.53231948       2.00031063       4.42445377  T      -0.23171050       0.59454628       0.37677914
Si       4.81113801       5.81406362       6.14820679  T      -0.01433971       0.41730275       0.20610252
Si       0.08008536       9.20451484       3.96401817  T       1.33270386       1.50868235      -0.33295319
Si       6.20071620       5.10855184       3.61627078  T       0.36204322      -0.86715592       0.13649775
Si       5.42000000       9.77000000       2.06000000  F       0.00000000       0.00000000       0.00000000
Si       8.44231792       7.02079300       2.74707886  T      -0.25295058       0.11134694      -0.05504025
Si       3.65755129       4.28308968       9.90323831  T      -1.35947723       0.43056897      -0.57297217
Si       2.24474035       1.62863776       8.95917720  T      -0.17270327       0.12888427      -0.33714626
Si       0.52378333       2.80408826       7.00802105  T       1.12873208      -0.67179588       0.44946683
Si       5.07739384       1.22364257       7.47427997  T       1.65166337      -0.35465386       0.22489162
Si       6.56938416       3.46387012       9.09384131  T      -0.08161696      -0.15858045       0.92499617
Si       7.86222354       0.96607789      10.46529909  T      -0.74885301       0.88582368      -0.15792481
Si       3.53021418       8.20377899      10.41704245  T       0.01219932      -0.47154595      -0.02537822
Si       2.95907969       6.88384715       8.03064216  T      -0.08424054      -0.32765117       0.39750460
Si       0.90905918       6.40129226      11.00931815  T       0.36356608      -0.61466994      -0.74912292
Si       0.29557720       5.78368269       7.96169224  T       0.10124681       0.20932830       0.65393650
Si       5.89086428       7.06118667      11.62932601  T       0.39515667      -0.24875454       1.18535599
Si       7.41826428       6.09758370       7.78325274  T       0.45971303       0.24166316      -0.00354588
Si       7.35465433       9.29038249       8.03153643  T      -0.69421599       0.33290797      -0.18723664
Si       7.93000000       1.02000000       0.50000000  F       0.00000000       0.00000000       0.00000000
Si       0.91000000       6.44000000       0.98000000  F       0.00000000       0.00000000       0.00000000
Si       5.91000000       7.08000000       1.49000000  F       0.00000000       0.00000000       0.00000000
C        5.00373545       4.99488000      22.85339207  T      -0.81611178       0.05659513     -13.19655375
F        5.78754883       6.06288898      22.86723971  T       0.33303690       0.03710036     -20.82339074
F        5.78751056       3.94498035      22.87323800  T       0.51506253      -0.20362492     -20.57350002
153
Lattice="10.0 0.0 0.0 0.0 10.0 0.0 0.0 0.0 43.74" Properties=species:S:1:pos:R:3:move_mask:L:1:momenta:R:3 etch=trj_CF2_30eV_case1 idx=0 index=0 source=trj_CF2_30eV_case1/0000/OUTCAR converged=T time_fs=37.0 pbc="T T T"
O        2.17370430       4.62768176      13.88626911  T      -0.26496049      -0.48243921      -0.00856113
O        1.43315887       2.46118658      12.29404480  T      -0.34124612       0.27041657      -1.05574817
O        3.81764826       2.57025461      14.27372768  T      -0.52756108       0.15093698      -0.02171204
O        3.71755783       4.49630392      16.12598501  T      -0.00371243      -0.20253258       0.32582120
O        1.75979492       2.88709440      15.87557219  T      -0.34409348      -0.44160856       0.28390008
O        5.04395018       1.72441621      16.02246673  T       0.07753104       0.19058832       0.98582185
O        5.03220787       0.96941206      13.31008689  T      -0.23189960       0.62742936       0.32203531
O        6.14551681       3.61911786      14.03801148  T      -0.11283928      -0.31592925      -0.16991644
O        7.14224944       1.48612917      14.75369554  T       0.95798927       0.66518402       0.38817789
O        8.95271812       2.34140466      16.44302007  T      -0.63299000       0.62255910       0.52287923
O        9.64828523       0.44621002      14.82122244  T       0.37219104       0.69374810       0.85266676
O        0.91053613       9.78153611      12.59833110  T      -0.38576927       0.37029062      -0.07300281
O        1.10645600       8.15617096      14.69133218  T      -0.29369552      -0.88476623       0.73053727
O       10.00991337       6.89385829      12.27391450  T       0.17759352      -0.71181255       0.95341896
O        5.33964802       6.08564261      14.64128710  T       0.64432585      -1.26182799       0.57289972
O        5.64898662       5.50205775      12.10131422  T       0.09304331      -0.76943215      -0.09477803
O        7.72374797       5.85675374      13.60707934  T      -0.09856153       0.33136504      -0.59747031
O        5.59283257       8.25746725      12.73165608  T       0.02512097       0.93410174       1.76910583
O        8.62102379       8.36604586      13.59831904  T      -0.04487717       0.34949069      -0.43843315
O        2.43542379       5.11311004      21.44987775  T      -0.21958127      -0.46772772      -0.92976004
O        0.24249035       6.11862328      22.65937186  T       0.43632034      -0.63897621      -1.15920148
O        1.89484025       0.23038426      20.08582441  T       0.30099242       0.80669204       0.17906621
O        2.32467320       2.84719063      19.94459555  T       1.56558811       0.25866526       0.40964598
O        3.47500966       1.30850535      18.18770154  T       0.47435806       0.28832538      -0.63817889
O        0.80197964       1.61252924      18.06816533  T      -0.28504096       0.09546396       0.38344825
O        0.38251940       4.07514049      17.80739990  T      -0.42850749       0.78821881       0.40202864
O        9.08010950       1.39774369      21.44312580  T      -0.21394894       0.45013404      -0.02191902
O        5.47703653       3.04123101      18.22093573  T       0.71945363      -0.30195430      -0.58036928
O        4.69542276       3.91802568      20.66910158  T       0.57876208      -0.25046066       0.22897492
O        7.07083012       2.74977232      20.35875917  T       0.11070229       0.20385572       0.38956809
O        6.49307561       0.50453882      21.50473881  T       0.86118566       0.17898490       0.36169524
O        6.59981579       5.22906587      19.37647315  T      -0.35114722      -0.35265004       0.19135895
O        7.93432472       9.83275348      16.75714429  T       0.32050602       0.65493416      -0.32670374
O        3.83123555       6.94957775      16.82871858  T      -0.30454233      -0.57091317       0.06308154
O        3.82540618       9.37906631      21.35829025  T       0.25936698      -0.15137731      -0.68082723
O        3.25902753       8.01277669      19.12806803  T      -0.00791895       0.19495506       0.19283421
O        1.30227318       6.63069723      17.78590520  T      -0.21391821      -0.61250543       0.88121034
O        3.21524232       5.28709886      18.91530065  T       0.24895901      -0.10895936       0.99365455
O        0.17088903       5.59682987      19.99291115  T      -0.58438187       0.74982688       0.30594304
O        1.52997429       7.76012349      21.17546920  T       0.05193314      -0.53797040       0.70949490
O        4.66055598       8.35340864      22.00697041  T      -0.76107944      -0.82900383       0.50647814
O        8.06224777       0.20936141      19.35318268  T       0.14271348       0.19305044      -0.17855763
O        6.86020873       8.77699040      23.67711029  T      -0.48923053      -0.70428524      -0.20233260
O        6.17494772       5.80931959      16.91248951  T      -0.09936775      -0.06812021       0.60418244
O        5.71852328       0.21309802      18.21655966  T      -0.21020636      -0.20192309      -0.12805685
O        8.67386449       6.07460695      17.92021231  T      -0.27956697       0.47014036      -0.13465030
O        6.93261844       7.86808818      18.40814333  T      -0.50850183       0.44157185       0.27556540
O        2.04727459       4.60756941       3.85516611  T      -0.62423135      -1.49188339      -0.13549686
O        1.56152251       2.48575556       2.12351150  T       0.74612069      -0.24360876      -2.65416302
O        3.84993836       2.68885128       4.16325257  T      -0.76633852       0.36495146       0.08531834
O        3.81015248       4.55015412       6.12031385  T      -0.33390615      -1.07470901      -0.71109984
O        1.62567937       2.96695619       5.79646049  T      -0.42324232       0.37566420       0.15138341
O        4.92759619       1.33396084       5.87917800  T       0.48942584       0.37040751      -0.53875210
O        5.22230976       0.92779169       3.16328578  T       0.65798942       0.47760976      -0.27918704
O        6.18979162       3.57148099       4.02289871  T       0.06229230      -0.48282473      -0.80083742
O        7.13727319       1.58645477       4.84271303  T       1.39439798       0.90273956       0.92955776
O        9.06333034       2.29385297       6.39935086  T       0.22804634       0.50032743       1.39749216
O        9.65834083       0.62011557       4.60592438  T       0.15512630       0.81064786      -0.86848191
O        1.02244137       9.71331898       2.49806936  T       0.59302196      -0.20249208      -0.01339018
O        1.13901639       8.08281789       4.66360709  T      -0.12240286      -1.08684059       0.56823128
O        9.87000000       6.98000000       2.02000000  F       0.00000000       0.00000000       0.00000000
O        5.34229161       6.03156803       4.62311893  T       0.76870881      -0.30126955       0.12001583
O        5.59000000       5.63000000       2.17000000  F       0.00000000       0.00000000       0.00000000
O        7.72997592       5.81518371       3.58193607  T       0.18471467      -0.03948989      -0.44548027
O        5.57136097       8.22094676       2.52407126  T      -0.51193526      -0.31465794       0.96186978
O        8.66353676       8.43647762       3.57193129  T       0.26801108       0.48465796      -0.14879046
O        3.48554804       4.13251619      11.55119482  T      -0.04459483      -0.30474359       0.54173751
O        1.10668713       4.85774386      11.41126734  T      -0.24402550      -0.13869773       0.37500077
O        1.76521206       0.86039697      10.27627826  T      -0.03483725      -0.76717105      -0.24178418
O        2.68506768       3.16599958       9.25646341  T      -0.59199860       0.92160659      -0.43785413
O        3.64662167       1.06306095       8.26255637  T      -0.31866538       0.83205642       0.83490149
O        0.93373911       1.60296963       7.98377093  T      -0.34052379      -0.20975868       0.40669128
O        0.45598883       4.17321109       7.82464039  T       0.19344666      -0.34899974      -0.45804311
O        9.26616943       1.29472599      11.26236359  T      -0.63666384      -0.45880313      -0.93770765
O        6.02398530       2.53914259       7.84398053  T       0.45236400       0.18779677       0.74513768
O        5.26880935       4.08108561       9.83048154  T       0.04446605      -0.02932035       0.40520965
O        7.44564140       2.47357415      10.00658237  T       0.31964944       0.24428136      -0.37135752
O        6.69108478       0.23797000      11.28990703  T      -1.56899315       0.20384001       0.71581793
O        7.45744074       4.80499287       8.74904302  T      -0.10617047      -0.52973088      -0.71751829
O        8.02606083       9.84310842       6.65418884  T       0.18676107       0.37332000       0.04736319
O        4.05315185       7.09429703       6.86184646  T       0.63036279      -0.38572159      -0.59161539
O        4.08819664       9.62779959      11.12239928  T       0.41039569       0.33769081      -0.68759702
O        3.02262859       8.28465883       8.88186815  T      -0.45707498      -0.10897101       0.50642101
O        1.54556091       6.58695758       7.19895508  T      -0.09180919      -0.14496534      -2.06063962
O        3.25029199       5.67701339       9.11578578  T      -0.81218904      -0.13934853       0.62084855
O        0.16792035       6.28814035       9.52004880  T       1.07089126      -1.10585727       0.51691419
O        2.32470397       7.37415989      11.17071800  T      -0.53919141      -0.56459729       0.41094749
O        4.93457595       7.29348530      10.40679813  T      -0.97491165      -0.69693415       0.01813925
O        8.30908955      -0.00920720       9.22757654  T       0.68129868      -1.18773026      -0.09339089
O        7.51140345       7.16057665      11.30361411  T       0.45650307      -0.29298263       0.40267520
O        6.23690151       5.55093366       6.83457300  T       0.20130674       0.47787695      -0.30977888
O        5.85176351       9.85852735       7.96224491  T       0.50323639      -0.06132962      -0.02357548
O        8.95731567       6.15068152       7.14220146  T      -0.31025941       1.00146249      -0.84350481
O        7.15340579       7.65211689       8.21261063  T      -0.44950250       0.06279193       0.39076586
O        3.55000000       4.18000000       1.53000000  F       0.00000000       0.00000000       0.00000000
O        1.14000000       4.89000000       1.35000000  F       0.00000000       0.00000000       0.00000000
O        9.29000000       1.31000000       1.44000000  F       0.00000000       0.00000000       0.00000000
O        6.84000000       0.20000000       1.30000000  F       0.00000000       0.00000000       0.00000000
O        3.95000000       9.60000000       1.25000000  F       0.00000000       0.00000000       0.00000000
O        2.28000000       7.42000000       1.08000000  F       0.00000000       0.00000000       0.00000000
O        7.52000000       7.21000000       1.37000000  F       0.00000000       0.00000000       0.00000000
Si       2.06724199       3.98386881      12.38423298  T      -1.20398802       0.34892392       0.49817091
Si       2.90013292       3.65812082      15.00455447  T      -0.20729572       0.30434245      -0.63665100
Si       0.82492770       1.09927069      11.62827367  T       0.29745635      -0.83981023      -2.03965652
Si       8.35918635       1.01190389      15.65607793  T       0.61610996      -0.48700209       1.26715881
Si       5.56395071       2.10380081      14.46619498  T      -0.07630808       0.68271441       0.53078471
Si       4.76097568       5.78889608      16.12798715  T      -0.41617575      -1.20129849       0.00210826
Si       0.03071132       9.19574657      13.84592511  T       0.55191908       0.61527842      -0.92543016
Si       6.21488367       5.15591007      13.63312875  T       0.51130053       0.44739983       0.05459074
Si       5.33974437       9.87629649      12.19403394  T      -0.78243680       0.92338586       0.06365364
Si       8.41218897       7.01960775      12.65630475  T       0.84934066      -0.32577817      -0.59549530
Si       3.16066349       4.28943888      20.23090695  T      -0.06263995      -0.95766649      -0.21925204
Si       2.10444906       1.52802648      19.06264937  T       0.11945495       0.76054499       0.12819060
Si       0.49525063       2.73443608      16.89481163  T       0.66844476       1.21813208       0.57040545
Si       4.97111477       1.55909389      17.62865040  T       0.10190713       0.14212805      -0.46908096
Si       5.96908452       3.72002040      19.60508280  T       0.54585641       0.07574470      -1.67653443
Si       7.69455981       1.24089063      20.57633491  T      -0.21013080      -0.53578739       1.36908691
Si       2.56465308       8.78070334      20.43210080  T       0.24987479       0.88997406       1.00327384
Si       2.85526708       6.73684983      18.14867278  T      -0.62148901       0.39337824      -0.33300982
Si       1.11065424       6.13561044      21.32229546  T      -0.04237824       0.14404149      -0.46497870
Si       0.14381787       5.56141196      18.35223552  T       0.17686947       0.24387142      -1.25940372
Si       6.08678462       9.29968176      22.44857972  T      -0.58690931       1.51295347      -0.96471639
Si       7.06677616       6.25140479      18.18845050  T      -0.44278391      -0.44639923       0.34644705
Si       7.18745087       9.47379058      18.11688466  T      -0.06883331      -0.01958983      -0.48025073
Si       2.10000000       3.98000000       2.32000000  F       0.00000000       0.00000000       0.00000000
Si       2.85378079       3.66722877       4.99758934  T      -0.57795487       1.34209271      -0.31577544
Si       0.89000000       1.15000000       1.77000000  F       0.00000000       0.00000000       0.00000000
Si       8.42427938       1.05480700       5.62758768  T       0.69086136      -1.03106707       0.29796146
Si       5.53135466       2.00240526       4.42585777  T      -0.31772218       0.60265872       0.42449596
Si       4.81110152       5.81566033       6.14878439  T      -0.00638704       0.49077132       0.12218956
Si       0.08504632       9.20950267       3.96272890  T       1.50331471       1.34027900      -0.40418224
Si       6.20202097       5.10563913       3.61685725  T       0.38430074      -0.79711255       0.19706997
Si       5.42000000       9.77000000       2.06000000  F       0.00000000       0.00000000       0.00000000
Si       8.44130701       7.02131515       2.74694583  T      -0.32380204       0.18851660      -0.02093081
Si       3.65289439       4.28457107       9.90140990  T      -1.29991523       0.41477372      -0.46832104
Si       2.24442921       1.62907554       8.95787585  T      -0.00606943       0.12301293      -0.40547723
Si       0.52756515       2.80169321       7.00928387  T       1.03170975      -0.69699981       0.27156750
Si       5.08317520       1.22241041       7.47512331  T       1.65048767      -0.34748507       0.25628423
Si       6.56901510       3.46336309       9.09698750  T      -0.12994003      -0.12924399       0.87301878
Si       7.85984121       0.96929052      10.46476581  T      -0.61596643       0.94541354      -0.14741900
Si       3.53044085       8.20220599      10.41712318  T       0.11622060      -0.42744398       0.07420949
Si       2.95866176       6.88273025       8.03198545  T      -0.15515668      -0.31068412       0.36701468
Si       0.91051190       6.39926704      11.00669695  T       0.46660632      -0.54288211      -0.74423183
Si       0.29600785       5.78447590       7.96388716  T       0.14385170       0.24228741       0.59598028
Si       5.89234907       7.06022805      11.63364032  T       0.45069981      -0.29673564       1.28091192
Si       7.42006190       6.09847506       7.78313758  T       0.56677313       0.26786903      -0.06278953
Si       7.35232375       9.29154186       8.03094814  T      -0.63380038       0.32765275      -0.14863487
Si       7.93000000       1.02000000       0.50000000  F       0.00000000       0.00000000       0.00000000
Si       0.91000000       6.44000000       0.98000000  F       0.00000000       0.00000000       0.00000000
Si       5.91000000       7.08000000       1.49000000  F       0.00000000       0.00000000       0.00000000
C        4.99707288       4.99544484      22.74557475  T      -0.80541637       0.07947937     -13.16920847
F        5.78926782       6.06294529      22.75954495  T       0.32939975      -0.01665547     -20.83634653
F        5.79031700       3.94393465      22.76706569  T       0.56884387      -0.19759312     -20.49186981
153
Lattice="10.0 0.0 0.0 0.0 10.0 0.0 0.0 0.0 43.74" Properties=species:S:1:pos:R:3:move_mask:L:1:momenta:R:3 etch=trj_CF2_30eV_case1 idx=0 index=0 source=trj_CF2_30eV_case1/0000/OUTCAR converged=T time_fs=38.0 pbc="T T T"
O        2.17205219       4.62458805      13.88613385  T      -0.27404637      -0.52359708      -0.03459789
O        1.43107173       2.46291541      12.28774450  T      -0.33960184       0.29072158      -0.99702371
O        3.81439099       2.57157953      14.27346901  T      -0.53236462       0.27995317      -0.06221609
O        3.71789449       4.49536704      16.12803831  T       0.11171206      -0.10425119       0.34210600
O        1.75722060       2.88427430      15.87739291  T      -0.49148651      -0.47505435       0.30732117
O        5.04457253       1.72549056      16.02888723  T       0.12600740       0.16023813       1.09891269
O        5.03117104       0.97308100      13.31195331  T      -0.10589562       0.56692903       0.28549176
O        6.14484246       3.61706112      14.03694273  T      -0.10636518      -0.35110596      -0.17887923
O        7.14806125       1.49012101      14.75589210  T       0.93267081       0.63538596       0.32693281
O        8.94912682       2.34525687      16.44611504  T      -0.53435782       0.63263667       0.48632966
O        9.65058100       0.45034957      14.82634657  T       0.37777679       0.65145270       0.81365560
O        0.90811394       9.78379771      12.59790920  T      -0.40209688       0.36697825      -0.06601753
O        1.10444942       8.15089934      14.69569134  T      -0.36111780      -0.83102181       0.68831821
O       10.01077659       6.88946744      12.27947944  T       0.10602638      -0.71915549       0.85666160
O        5.34329612       6.07787735      14.64483375  T       0.54318166      -1.26593006       0.58242755
O        5.64966507       5.49749067      12.10112740  T       0.12798264      -0.71633652       0.03353498
O        7.72335405       5.85876167      13.60335179  T      -0.02979754       0.32208670      -0.61581226
O        5.59298966       8.26356386      12.74247525  T       0.02632326       1.04769817       1.75116418
O        8.62078294       8.36841196      13.59557669  T      -0.03292055       0.42115737      -0.45513282
O        2.43386935       5.11040001      21.44403410  T      -0.28721743      -0.41467688      -0.97241634
O        0.24497245       6.11463574      22.65254798  T       0.37020740      -0.66013322      -1.06024895
O        1.89670670       0.23529020      20.08675610  T       0.30715194       0.79010609       0.12509432
O        2.33451477       2.84948523      19.94734734  T       1.63824104       0.48441084       0.48489509
O        3.47769300       1.31030253      18.18379137  T       0.39586609       0.29739675      -0.63332881
O        0.80053684       1.61301092      18.07058132  T      -0.18448394       0.06277893       0.40371230
O        0.37990601       4.08016331      17.80975805  T      -0.42174534       0.84369042       0.36446176
O        9.07883809       1.40054333      21.44297146  T      -0.19927069       0.46179795      -0.02771655
O        5.48149444       3.03919035      18.21741638  T       0.73259821      -0.36141463      -0.56517388
O        4.69891723       3.91649787      20.67012558  T       0.55478819      -0.24683206       0.09804345
O        7.07150812       2.75091575      20.36092876  T       0.10981709       0.16796263       0.31610552
O        6.49833312       0.50571753      21.50675535  T       0.84974238       0.20561538       0.29499364
O        6.59759790       5.22678485      19.37778060  T      -0.37040018      -0.38819023       0.23384587
O        7.93643633       9.83681073      16.75481092  T       0.36554800       0.66355671      -0.42938460
O        3.82920602       6.94603394      16.82927160  T      -0.35620461      -0.58328620       0.11631930
O        3.82694778       9.37824195      21.35418851  T       0.24416972      -0.11685261      -0.65373738
O        3.25869769       8.01390919      19.12932474  T      -0.10031283       0.17357268       0.21604155
O        1.30052825       6.62683633      17.79127159  T      -0.35282081      -0.64317346       0.86514594
O        3.21680403       5.28646928      18.92143803  T       0.25946836      -0.09358661       1.00243865
O        0.16772759       5.60161378      19.99519446  T      -0.44587736       0.80795214       0.43394268
O        1.53037619       7.75659413      21.17972942  T       0.08128856      -0.60779533       0.67672391
O        4.65634131       8.34866521      22.01015392  T      -0.61137498      -0.71398596       0.52984708
O        8.06292441       0.21060000      19.35207981  T       0.07708569       0.21073290      -0.18002904
O        6.85705416       8.77272239      23.67574690  T      -0.54004393      -0.68453125      -0.24449598
O        6.17443671       5.80871665      16.91636013  T      -0.06926101      -0.12862572       0.65500863
O        5.71736588       0.21197485      18.21565273  T      -0.16644284      -0.16381826      -0.16747312
O        8.67205226       6.07744766      17.91928712  T      -0.31000014       0.45489405      -0.16647188
O        6.92947430       7.87101497      18.40988672  T      -0.51539147       0.50868935       0.29200846
O        2.04349073       4.59811556       3.85409454  T      -0.60983250      -1.58481768      -0.21390949
O        1.56618494       2.48410292       2.10727682  T       0.77397313      -0.29233017      -2.63378213
O        3.84517751       2.69121888       4.16385947  T      -0.78295530       0.40517804       0.11164033
O        3.80764530       4.54324456       6.11574668  T      -0.47868418      -1.17013128      -0.77476646
O        1.62313105       2.96922745       5.79747145  T      -0.40498919       0.36432538       0.17657129
O        4.93055002       1.33628394       5.87572004  T       0.47261300       0.38521376      -0.58272500
O        5.22658104       0.93066423       3.16169863  T       0.73324293       0.45849245      -0.23703404
O        6.19011407       3.56845731       4.01779466  T       0.04266534      -0.50222370      -0.86141665
O        7.14585657       1.59177308       4.84822758  T       1.39680835       0.83081438       0.86490613
O        9.06514701       2.29742186       6.40825904  T       0.36074730       0.65683009       1.50081481
O        9.65929604       0.62495423       4.60058723  T       0.15645562       0.76546160      -0.86927171
O        1.02598367       9.71226918       2.49823861  T       0.56095597      -0.13856447       0.06811890
O        1.13788156       8.07661825       4.66688254  T      -0.24786752      -0.93122336       0.49803138
O        9.87000000       6.98000000       2.02000000  F       0.00000000       0.00000000       0.00000000
O        5.34678267       6.02990392       4.62381823  T       0.69330748      -0.24081485       0.10835096
O        5.59000000       5.63000000       2.17000000  F       0.00000000       0.00000000       0.00000000
O        7.73135120       5.81493268       3.57916406  T       0.26255278      -0.04320395      -0.45673979
O        5.56812964       8.21921010       2.53040385  T      -0.53995823      -0.25100482       1.09886880
O        8.66512261       8.43935917       3.57102208  T       0.24958450       0.45393647      -0.14733287
O        3.48511259       4.13067143      11.55440081  T      -0.09783057      -0.29573385       0.50102042
O        1.10514916       4.85684491      11.41350677  T      -0.25771200      -0.15335517       0.35364139
O        1.76482520       0.85549420      10.27510756  T      -0.08980564      -0.82910793      -0.14194488
O        2.68137294       3.17171059       9.25374022  T      -0.61295136       0.93573963      -0.44975676
O        3.64452195       1.06825389       8.26764267  T      -0.35976674       0.85831073       0.81886400
O        0.93192832       1.60149702       7.98643764  T      -0.24847867      -0.27060373       0.46251131
O        0.45714533       4.17126172       7.82199252  T       0.18280460      -0.28209527      -0.40301517
O        9.26206504       1.29181668      11.25662489  T      -0.69618188      -0.48875597      -0.92986480
O        6.02668910       2.54030925       7.84862309  T       0.42697793       0.18992080       0.76534234
O        5.26883988       4.08084522       9.83282472  T      -0.03659758      -0.04850936       0.35814706
O        7.44758480       2.47505607      10.00439132  T       0.31385914       0.23774659      -0.34128103
O        6.68133080       0.23926462      11.29446611  T      -1.60124788       0.22124241       0.76393897
O        7.45690855       4.80151685       8.74502094  T      -0.06654582      -0.60119565      -0.59286159
O        8.02745043       9.84521659       6.65426615  T       0.26509153       0.31126506      -0.02045951
O        4.05731629       7.09166176       6.85802444  T       0.72176593      -0.47065556      -0.64887297
O        4.09046241       9.62967455      11.11810950  T       0.32660392       0.27196168      -0.70981725
O        3.01973787       8.28400007       8.88481718  T      -0.48476801      -0.10648650       0.45235277
O        1.54501780       6.58595905       7.18681197  T      -0.08382274      -0.18030369      -1.89159523
O        3.24524853       5.67606359       9.11952904  T      -0.83112673      -0.16741583       0.59650044
O        0.17471416       6.28153023       9.52343745  T       1.14043178      -1.04677746       0.58373896
O        2.32091814       7.37046827      11.17322401  T      -0.69143459      -0.63592864       0.40411052
O        4.92824930       7.28933726      10.40648619  T      -1.08098600      -0.65539023      -0.11474389
O        8.31290104      -0.01671782       9.22681160  T       0.55821498      -1.25599207      -0.15282695
O        7.51422955       7.15884347      11.30608843  T       0.46156862      -0.27114970       0.40143804
O        6.23810624       5.55390930       6.83272105  T       0.19111322       0.49119752      -0.29299691
O        5.85462743       9.85823443       7.96223770  T       0.42651851      -0.03313226       0.02106411
O        8.95507365       6.15692192       7.13703606  T      -0.41601732       1.03019516      -0.83632595
O        7.15073580       7.65268765       8.21503251  T      -0.42020724       0.12291499       0.39788846
O        3.55000000       4.18000000       1.53000000  F       0.00000000       0.00000000       0.00000000
O        1.14000000       4.89000000       1.35000000  F       0.00000000       0.00000000       0.00000000
O        9.29000000       1.31000000       1.44000000  F       0.00000000       0.00000000       0.00000000
O        6.84000000       0.20000000       1.30000000  F       0.00000000       0.00000000       0.00000000
O        3.95000000       9.60000000       1.25000000  F       0.00000000       0.00000000       0.00000000
O        2.28000000       7.42000000       1.08000000  F       0.00000000       0.00000000       0.00000000
O        7.52000000       7.21000000       1.37000000  F       0.00000000       0.00000000       0.00000000
Si       2.06309699       3.98494521      12.38576506  T      -1.16428728       0.26493027       0.37628368
Si       2.89942044       3.65903751      15.00241963  T      -0.20080006       0.21836940      -0.58110196
Si       0.82607859       1.09644460      11.62103781  T       0.35786048      -0.77400959      -2.09568459
Si       8.36134685       1.01024787      15.66060368  T       0.61937513      -0.45617478       1.31909541
Si       5.56345828       2.10605674      14.46808323  T      -0.20460453       0.60572506       0.55024902
Si       4.75940799       5.78474800      16.12796714  T      -0.47853230      -1.16976460      -0.01134362
Si       0.03269628       9.19777590      13.84285502  T       0.58142552       0.54518614      -0.82557696
Si       6.21668369       5.15760026      13.63315199  T       0.51858687       0.51468809      -0.04130606
Si       5.33708282       9.87924687      12.19417633  T      -0.74093192       0.76398570       0.02072440
Si       8.41529816       7.01847907      12.65439691  T       0.92895960      -0.31821294      -0.49302133
Si       3.16023263       4.28597036      20.23001650  T      -0.18237230      -1.02352728      -0.28970654
Si       2.10492028       1.53045471      19.06302477  T       0.15185178       0.62836007       0.08568743
Si       0.49750603       2.73863559      16.89696276  T       0.61692007       1.18146237       0.65979130
Si       4.97141052       1.55960669      17.62693388  T       0.06847433       0.14958137      -0.50981561
Si       5.97111531       3.72033622      19.59931052  T       0.61667189       0.10164299      -1.62300110
Si       7.69381180       1.23898689      20.58121367  T      -0.21620377      -0.55072907       1.41678019
Si       2.56553720       8.78383029      20.43543068  T       0.25313503       0.89585427       0.89992767
Si       2.85341599       6.73822604      18.14754500  T      -0.43550473       0.39238617      -0.30885647
Si       1.11046985       6.13608167      21.32041172  T      -0.06173555       0.12411489      -0.61444003
Si       0.14440545       5.56239711      18.34788502  T       0.15565196       0.32166168      -1.22226283
Si       6.08464712       9.30467805      22.44533392  T      -0.63507321       1.33898752      -0.88635869
Si       7.06538569       6.24987754      18.18958149  T      -0.35173538      -0.42415157       0.30117960
Si       7.18710029       9.47373365      18.11545631  T      -0.13105721      -0.01140599      -0.33678817
Si       2.10000000       3.98000000       2.32000000  F       0.00000000       0.00000000       0.00000000
Si       2.85195984       3.67197529       4.99664187  T      -0.46449625       1.36818798      -0.22474644
Si       0.89000000       1.15000000       1.77000000  F       0.00000000       0.00000000       0.00000000
Si       8.42653956       1.05121290       5.62864676  T       0.60560425      -1.01793793       0.30973104
Si       5.53011024       2.00452307       4.42741293  T      -0.39164734       0.60789859       0.46291485
Si       4.81109393       5.81746534       6.14904990  T       0.00213361       0.53573275       0.02768022
Si       0.09059439       9.21387285       3.96119196  T       1.66788015       1.15613896      -0.47445115
Si       6.20340587       5.10298350       3.61763858  T       0.40792057      -0.72026850       0.24786137
Si       5.42000000       9.77000000       2.06000000  F       0.00000000       0.00000000       0.00000000
Si       8.44006143       7.02211901       2.74693256  T      -0.38688656       0.27239737       0.01328978
Si       3.64847810       4.28598082       9.89998613  T      -1.22236110       0.38966947      -0.34199730
Si       2.24469100       1.62950702       8.95635175  T       0.15427425       0.12517490      -0.46388660
Si       0.53098964       2.79921763       7.00991714  T       0.92511118      -0.71775193       0.09046662
Si       5.08891661       1.22122654       7.47606567  T       1.62887974      -0.32695644       0.28129218
Si       6.56847254       3.46297804       9.09994256  T      -0.18072452      -0.08896948       0.81602131
Si       7.85789872       0.97265633      10.46426560  T      -0.49781791       0.97329477      -0.13901948
Si       3.53101757       8.20079134      10.41757582  T       0.21149913      -0.38122828       0.18681945
Si       2.95799347       6.88167578       8.03318891  T      -0.22691806      -0.29201859       0.31778752
Si       0.91231960       6.39749695      11.00414484  T       0.56645447      -0.46914106      -0.70958167
Si       0.29657573       5.78536600       7.96583222  T       0.17943269       0.26475302       0.51163009
Si       5.89399712       7.05912752      11.63827872  T       0.48817854      -0.32963864       1.36987758
Si       7.42221902       6.09945559       7.78281217  T       0.66485163       0.29238829      -0.12328497
Si       7.35024759       9.29266062       8.03049879  T      -0.54902376       0.30979162      -0.10814278
Si       7.93000000       1.02000000       0.50000000  F       0.00000000       0.00000000       0.00000000
Si       0.91000000       6.44000000       0.98000000  F       0.00000000       0.00000000       0.00000000
Si       5.91000000       7.08000000       1.49000000  F       0.00000000       0.00000000       0.00000000
C        4.99066610       4.99615053      22.63801897  T      -0.75409051       0.09086309     -13.13216424
F        5.79093453       6.06270810      22.65177583  T       0.31316422      -0.07576504     -20.85220235
F        5.79338335       3.94296386      22.66139166  T       0.61694135      -0.17505494     -20.37865361
153
Lattice="10.0 0.0 0.0 0.0 10.0 0.0 0.0 0.0 43.74" Properties=species:S:1:pos:R:3:move_mask:L:1:momenta:R:3 etch=trj_CF2_30eV_case1 idx=0 index=0 source=trj_CF2_30eV_case1/0000/OUTCAR converged=T time_fs=39.0 pbc="T T T"
O        2.17033123       4.62126999      13.88585391  T      -0.28730686      -0.55562031      -0.05562264
O        1.42897894       2.46473481      12.28179762  T      -0.34311341       0.29980087      -0.94068690
O        3.81112448       2.57368277      14.27296706  T      -0.53029248       0.40406004      -0.10098750
O        3.71890981       4.49500456      16.13017511  T       0.21685826      -0.01599054       0.35284644
O        1.75379324       2.88128235      15.87932533  T      -0.62152944      -0.49746405       0.32008241
O        5.04550534       1.72639297      16.03588730  T       0.17859107       0.13466193       1.17393299
O        5.03090599       0.97636582      13.31358853  T       0.01929005       0.50245314       0.24689536
O        6.14421557       3.61483807      14.03580813  T      -0.09737762      -0.36991031      -0.19140758
O        7.15367685       1.49393308      14.75770678  T       0.89434699       0.60658238       0.26401666
O        8.94618089       2.34917567      16.44900194  T      -0.42311636       0.64415332       0.45506553
O        9.65294441       0.45417779      14.83118555  T       0.39397614       0.59275669       0.76014059
O        0.90561062       9.78604836      12.59750401  T      -0.41223424       0.36682174      -0.06758647
O        1.10201113       8.14598075      14.69977305  T      -0.43409393      -0.76997141       0.64032154
O       10.01124013       6.88502165      12.28440706  T       0.04739303      -0.72963940       0.74610372
O        5.34631010       6.07011662      14.64843768  T       0.43802081      -1.26038220       0.59136236
O        5.65055715       5.49328187      12.10171980  T       0.16240610      -0.65276600       0.15862317
O        7.72338052       5.86070162      13.59952848  T       0.03815238       0.30912719      -0.62853756
O        5.59315842       8.27028775      12.75311750  T       0.02888887       1.13822279       1.71168517
O        8.62062555       8.37121496      13.59272788  T      -0.01783593       0.49160035      -0.47314509
O        2.43189411       5.10802111      21.43795219  T      -0.35635539      -0.36009910      -1.00731882
O        0.24701713       6.11051595      22.64638582  T       0.29419080      -0.68205529      -0.94418715
O        1.89861304       0.24007257      20.08736768  T       0.31395320       0.76648071       0.07488427
O        2.34476478       2.85308517      19.95052691  T       1.69806606       0.68223578       0.54832396
O        3.47983306       1.31215995      18.17994716  T       0.29787141       0.30794245      -0.61684397
O        0.79971795       1.61331418      18.07312372  T      -0.08204762       0.03741726       0.42457282
O        0.37735149       4.08545551      17.81185843  T      -0.40938541       0.87586888       0.31818566
O        9.07767216       1.40341353      21.44279188  T      -0.17963538       0.47312631      -0.03017590
O        5.48603077       3.03680825      18.21400631  T       0.74499415      -0.41300781      -0.54454574
O        4.70217824       3.91499955      20.67023079  T       0.50111421      -0.24073086      -0.07193841
O        7.07217451       2.75182891      20.36263010  T       0.10674873       0.12909759       0.23719171
O        6.50349057       0.50706747      21.50836169  T       0.82831974       0.23424408       0.22862082
O        6.59527714       5.22432375      19.37933780  T      -0.38470327      -0.41099202       0.27285049
O        7.93879264       9.84086682      16.75191742  T       0.39982109       0.65418020      -0.50833917
O        3.82686670       6.94241819      16.83013828  T      -0.40524514      -0.59425453       0.16507493
O        3.82841818       9.37763439      21.35027907  T       0.23615483      -0.08080057      -0.61824768
O        3.25778870       8.01490425      19.13071503  T      -0.19639102       0.15023415       0.23623020
O        1.29796418       6.62282217      17.79651097  T      -0.47956749      -0.66208679       0.83997583
O        3.21842542       5.28597561      18.92757713  T       0.26844386      -0.06472416       0.99424466
O        0.16540805       5.60674374      19.99819681  T      -0.31049395       0.86238592       0.53967884
O        1.53099600       7.75270151      21.18376282  T       0.12290193      -0.65616146       0.63564387
O        4.65305206       8.34466354      22.01346854  T      -0.45997421      -0.58750057       0.54909603
O        8.06318861       0.21195208      19.35097900  T       0.00848800       0.23000335      -0.17789927
O        6.85356249       8.76859927      23.67408333  T      -0.59864511      -0.65732388      -0.29954186
O        6.17407394       5.80773708      16.92051413  T      -0.05128404      -0.19074201       0.69631001
O        5.71648225       0.21108799      18.21450250  T      -0.12125592      -0.12492412      -0.20727226
O        8.67006678       6.08018910      17.91817146  T      -0.33584153       0.43779717      -0.19658867
O        6.92629322       7.87430041      18.41172553  T      -0.52054225       0.55809673       0.30668051
O        2.03977135       4.58813995       3.85253757  T      -0.60325570      -1.66174561      -0.29330636
O        1.57103970       2.48219176       2.09117676  T       0.80883232      -0.32765703      -2.61036666
O        3.84034138       2.69381401       4.16461520  T      -0.79069929       0.43889220       0.13368995
O        3.80431988       4.53585017       6.11082189  T      -0.59992180      -1.23211476      -0.82722268
O        1.62072622       2.97143123       5.79861397  T      -0.37645275       0.35372658       0.19413600
O        4.93339742       1.33867894       5.87207479  T       0.45472834       0.39377856      -0.59955861
O        5.23131127       0.93342516       3.16038294  T       0.80740987       0.44123526      -0.19086082
O        6.19031489       3.56531448       4.01232575  T       0.02271009      -0.52142165      -0.91966010
O        7.15437558       1.59666818       4.85331426  T       1.37360265       0.76498473       0.79033094
O        9.06772486       2.30185970       6.41774021  T       0.47516044       0.78286962       1.58366025
O        9.66026571       0.62951321       4.59525944  T       0.15973916       0.71945164      -0.86539133
O        1.02933047       9.71162657       2.49890076  T       0.52943750      -0.06992534       0.14699926
O        1.13596861       8.07139660       4.66971606  T      -0.37551673      -0.76866123       0.42448115
O        9.87000000       6.98000000       2.02000000  F       0.00000000       0.00000000       0.00000000
O        5.35079571       6.02861053       4.62445422  T       0.61316309      -0.18062237       0.09919885
O        5.59000000       5.63000000       2.17000000  F       0.00000000       0.00000000       0.00000000
O        7.73319100       5.81464316       3.57633610  T       0.33578883      -0.05214583      -0.46362429
O        5.56473917       8.21786273       2.53754067  T      -0.56359640      -0.18833386       1.22349698
O        8.66661169       8.44205128       3.57012291  T       0.23648975       0.42306698      -0.14549160
O        3.48434202       4.12888951      11.55733126  T      -0.15353571      -0.28429056       0.45215362
O        1.10351526       4.85586899      11.41560114  T      -0.27523771      -0.16375081       0.32780418
O        1.76412554       0.85022604      10.27450724  T      -0.13632966      -0.88595054      -0.05670595
O        2.67752805       3.17745902       9.25093619  T      -0.64072878       0.93393213      -0.46404864
O        3.64226196       1.07358653       8.27257917  T      -0.37071989       0.87741417       0.78609246
O        0.93069524       1.59964267       7.98945277  T      -0.15266919      -0.33361856       0.51967336
O        0.45822884       4.16978416       7.81970547  T       0.16972736      -0.19596827      -0.34083655
O        9.25766558       1.28872640      11.25096510  T      -0.73245357      -0.51771106      -0.91189748
O        6.02921345       2.54145077       7.85335871  T       0.39390629       0.17961895       0.77536007
O        5.26834114       4.08049456       9.83487984  T      -0.12746233      -0.06530344       0.31137661
O        7.44949900       2.47648689      10.00240224  T       0.30998460       0.22778832      -0.30573508
O        6.67149709       0.24072074      11.29923162  T      -1.59486696       0.25637294       0.78296362
O        7.45663024       4.79762811       8.74175909  T      -0.02346707      -0.66360121      -0.47033264
O        8.02930657       9.84690824       6.65395677  T       0.33856039       0.23763120      -0.07832266
O        4.06196683       7.08854085       6.85392670  T       0.78835240      -0.54357666      -0.68123568
O        4.09219715       9.63112888      11.11368470  T       0.23765929       0.20093616      -0.73131807
O        3.01667483       8.28334260       8.88740552  T      -0.51309314      -0.10851608       0.38937179
O        1.54454428       6.58474433       7.17576081  T      -0.06925337      -0.21526969      -1.70541529
O        3.24008286       5.67498463       9.12308959  T      -0.85194115      -0.18145855       0.56138056
O        0.18190457       6.27529285       9.52718038  T       1.19992292      -0.98455684       0.63169666
O        2.31624409       7.36637430      11.17566649  T      -0.82787997      -0.69524932       0.39018508
O        4.92135768       7.28542490      10.40544352  T      -1.15829579      -0.62048457      -0.21936205
O        8.31592395      -0.02459920       9.22573103  T       0.42471874      -1.30837402      -0.19608761
O        7.51704479       7.15725172      11.30852469  T       0.45293224      -0.24694575       0.39045716
O        6.23924816       5.55696218       6.83098049  T       0.18089141       0.50297525      -0.27348931
O        5.85697055       9.85812929       7.96250166  T       0.33407564      -0.00037566       0.06471918
O        8.95225094       6.16331922       7.13196032  T      -0.49908364       1.05257195      -0.81445945
O        7.14824652       7.65362215       8.21749316  T      -0.39064571       0.18093874       0.40334663
O        3.55000000       4.18000000       1.53000000  F       0.00000000       0.00000000       0.00000000
O        1.14000000       4.89000000       1.35000000  F       0.00000000       0.00000000       0.00000000
O        9.29000000       1.31000000       1.44000000  F       0.00000000       0.00000000       0.00000000
O        6.84000000       0.20000000       1.30000000  F       0.00000000       0.00000000       0.00000000
O        3.95000000       9.60000000       1.25000000  F       0.00000000       0.00000000       0.00000000
O        2.28000000       7.42000000       1.08000000  F       0.00000000       0.00000000       0.00000000
O        7.52000000       7.21000000       1.37000000  F       0.00000000       0.00000000       0.00000000
Si       2.05910871       3.98571298      12.38685630  T      -1.11464152       0.17269668       0.24637767
Si       2.89872382       3.65964087      15.00050773  T      -0.19842765       0.12559925      -0.50905785
Si       0.82741379       1.09386893      11.61362965  T       0.40260237      -0.69685772      -2.13776980
Si       8.36351913       1.00873541      15.66529314  T       0.62289155      -0.40481533       1.36020590
Si       5.56252369       2.10802893      14.47005090  T      -0.32906558       0.52060481       0.57603919
Si       4.75763965       5.78071967      16.12792101  T      -0.53057302      -1.13268344      -0.01273071
Si       0.03476828       9.19956058      13.84017575  T       0.60172200       0.47550065      -0.70239869
Si       6.21851474       5.15948364      13.63284166  T       0.52913475       0.55763156      -0.13552088
Si       5.33455272       9.88164280      12.19419611  T      -0.70750768       0.60662585      -0.00648913
Si       8.41868872       7.01739072      12.65286959  T       1.01012429      -0.30254667      -0.37821037
Si       3.15939530       4.28229451      20.22888156  T      -0.29530075      -1.07548037      -0.35920332
Si       2.10552213       1.53242640      19.06324592  T       0.19417772       0.50031171       0.04057733
Si       0.49954097       2.74269003      16.89942774  T       0.54254415       1.13532799       0.74997077
Si       4.97160089       1.56013088      17.62510148  T       0.04156121       0.14850106      -0.53480157
Si       5.97340649       3.72071150      19.59373494  T       0.69514066       0.10944248      -1.56482132
Si       7.69305628       1.23705042      20.58622185  T      -0.21419845      -0.55460404       1.44306709
Si       2.56640884       8.78695633      20.43839131  T       0.24278123       0.88941315       0.79249335
Si       2.85222603       6.73958735      18.14652944  T      -0.24467638       0.38479965      -0.26906027
Si       1.11022936       6.13647158      21.31798694  T      -0.07474045       0.09776309      -0.77349594
Si       0.14488594       5.56367421      18.34372156  T       0.11550421       0.41061862      -1.15246566
Si       6.08234415       9.30902069      22.44240613  T      -0.68154567       1.14011939      -0.78382170
Si       7.06431845       6.24845396      18.19056305  T      -0.25824526      -0.38719720       0.26120423
Si       7.18653875       9.47372062      18.11452527  T      -0.18906383       0.00575320      -0.19655159
Si       2.10000000       3.98000000       2.32000000  F       0.00000000       0.00000000       0.00000000
Si       2.85052345       3.67677555       4.99602384  T      -0.35853991       1.37264971      -0.12771032
Si       0.89000000       1.15000000       1.77000000  F       0.00000000       0.00000000       0.00000000
Si       8.42854028       1.04772305       5.62976590  T       0.54290008      -0.97147930       0.33213238
Si       5.52862785       2.00665495       4.42908407  T      -0.45390867       0.61080431       0.49056591
Si       4.81111702       5.81937327       6.14896683  T       0.01119357       0.54919518      -0.07704002
Si       0.09670335       9.21757658       3.95941203  T       1.82353186       0.95987588      -0.54297299
Si       6.20487613       5.10060750       3.61858010  T       0.43315031      -0.63736086       0.28865425
Si       5.42000000       9.77000000       2.06000000  F       0.00000000       0.00000000       0.00000000
Si       8.43861064       7.02322758       2.74703809  T      -0.44092855       0.36268614       0.04686604
Si       3.64436063       4.28728714       9.89903858  T      -1.12962011       0.35573938      -0.19653536
Si       2.24549797       1.62995919       8.95464529  T       0.30513221       0.13469820      -0.50921736
Si       0.53403012       2.79667805       7.00991927  T       0.81288034      -0.73346456      -0.08825971
Si       5.09454740       1.22013830       7.47708285  T       1.58736397      -0.29276987       0.29891372
Si       6.56774891       3.46275164       9.10269196  T      -0.23336457      -0.03874202       0.75574136
Si       7.85634051       0.97606395      10.46379098  T      -0.39654591       0.96942528      -0.13282150
Si       3.53190575       8.19954032      10.41844106  T       0.29350830      -0.33408277       0.30953908
Si       2.95707613       6.88068907       8.03418957  T      -0.29718648      -0.27200412       0.25138889
Si       0.91447013       6.39598537      11.00176569  T       0.66253856      -0.39543274      -0.64546370
Si       0.29725404       5.78631672       7.96744087  T       0.20685669       0.27706299       0.40431571
Si       5.89574272       7.05793991      11.64321114  T       0.50635733      -0.34639396       1.44841043
Si       7.42470027       6.10051703       7.78227662  T       0.75173280       0.31391691      -0.18248320
Si       7.34850773       9.29369592       8.03019173  T      -0.44198856       0.28011778      -0.06759869
Si       7.93000000       1.02000000       0.50000000  F       0.00000000       0.00000000       0.00000000
Si       0.91000000       6.44000000       0.98000000  F       0.00000000       0.00000000       0.00000000
Si       5.91000000       7.08000000       1.49000000  F       0.00000000       0.00000000       0.00000000
C        4.98483506       4.99689902      22.53081017  T      -0.66506286       0.08970690     -13.08447394
F        5.79248951       6.06215876      22.54391610  T       0.28665473      -0.13686637     -20.87167051
F        5.79670132       3.94214736      22.55641026  T       0.66816038      -0.13834885     -20.22135727
153
Lattice="10.0 0.0 0.0 0.0 10.0 0.0 0.0 0.0 43.74" Properties=species:S:1:pos:R:3:move_mask:L:1:momenta:R:3 etch=trj_CF2_30eV_case1 idx=0 index=0 source=trj_CF2_30eV_case1/0000/OUTCAR converged=T time_fs=40.0 pbc="T T T"
O        2.16851720       4.61778181      13.88546104  T      -0.30426692      -0.57915879      -0.07134387
O        1.42684866       2.46657432      12.27618851  T      -0.35179264       0.29723413      -0.88703568
O        3.80789542       2.57652738      14.27223192  T      -0.51990038       0.52104907      -0.13822061
O        3.72053273       4.49514591      16.13235884  T       0.30920505       0.05937051       0.35728045
O        1.74962591       2.87818792      15.88130114  T      -0.73223976      -0.50839721       0.32134712
O        5.04677240       1.72715398      16.04322312  T       0.23477704       0.11422962       1.20783638
O        5.03140408       0.97924475      13.31498294  T       0.14248791       0.43488821       0.20724297
O        6.14365146       3.61255146      14.03458541  T      -0.08594138      -0.37180556      -0.20757264
O        7.15902118       1.49757073      14.75913332  T       0.84463154       0.57851278       0.20075224
O        8.94395155       2.35316809      16.45171245  T      -0.30134101       0.65648379       0.42879787
O        9.65543605       0.45760139      14.83565685  T       0.41920487       0.52014922       0.69435062
O        0.90306334       9.78830877      12.59706299  T      -0.41649761       0.37019927      -0.07763678
O        1.09911081       8.14145665      14.70354451  T      -0.51140065      -0.70272046       0.58741749
O       10.01138306       6.88050295      12.28861784  T       0.00152663      -0.74280420       0.62351264
O        5.34866973       6.06241893      14.65209187  T       0.33030679      -1.24547016       0.59857575
O        5.65165597       5.48949468      12.10306469  T       0.19510546      -0.57908592       0.27826419
O        7.72381870       5.86254948      13.59564594  T       0.10410881       0.29200062      -0.63498256
O        5.59334658       8.27749437      12.76345454  T       0.03259854       1.20485822       1.65203493
O        8.62056845       8.37444394      13.58976410  T      -0.00039801       0.55972305      -0.49259980
O        2.42949399       5.10597871      21.43168049  T      -0.42529596      -0.30530838      -1.03419733
O        0.24857004       6.10625926      22.64098065  T       0.21047381      -0.70472064      -0.81435974
O        1.90056267       0.24468897      20.08768371  T       0.32121940       0.73611037       0.02888833
O        2.35533500       2.85779258      19.95405128  T       1.74196368       0.84365202       0.59666738
O        3.48131902       1.31408659      18.17623754  T       0.18344748       0.31994338      -0.58970689
O        0.79953041       1.61348504      18.07579530  T       0.02093378       0.01969356       0.44574183
O        0.37488914       4.09087350      17.81365011  T      -0.39180767       0.88478922       0.26411999
O        9.07664117       1.40635239      21.44260686  T      -0.15539928       0.48418307      -0.02954547
O        5.49064079       3.03413579      18.21074245  T       0.75658884      -0.45584694      -0.51735351
O        4.70499538       3.91354748      20.66914747  T       0.40820717      -0.23175177      -0.29147759
O        7.07281318       2.75249775      20.36383210  T       0.10084173       0.08841501       0.15335689
O        6.50848221       0.50859197      21.50956895  T       0.79545607       0.26187902       0.16554354
O        6.59288415       5.22176524      19.38112367  T      -0.39373689      -0.41974459       0.30801012
O        7.94132153       9.84480557      16.74862198  T       0.42147545       0.62506693      -0.55971524
O        3.82423716       6.93874065      16.83128819  T      -0.45053958      -0.60332298       0.20842109
O        3.82986083       9.37725222      21.34661218  T       0.23504514      -0.04347578      -0.57484482
O        3.25628113       8.01575077      19.13221855  T      -0.29509880       0.12524480       0.25282877
O        1.29467479       6.61873245      17.80156976  T      -0.58798915      -0.66746566       0.80646127
O        3.22009777       5.28569965      18.93361453  T       0.27611055      -0.02277736       0.96939561
O        0.16390527       5.61219434      20.00177409  T      -0.18017971       0.91223897       0.62085908
O        1.53190824       7.74857905      21.18751926  T       0.17644405      -0.68266123       0.58658925
O        4.65069303       8.34147165      22.01688779  T      -0.30866222      -0.45037987       0.56389694
O        8.06302426       0.21342704      19.34990202  T      -0.06239414       0.25072675      -0.17230391
O        6.84969268       8.76466262      23.67205034  T      -0.66277832      -0.62407552      -0.36418537
O        6.17378215       5.80637217      16.92489077  T      -0.04622637      -0.25407434       0.72751131
O        5.71587723       0.21044264      18.21310731  T      -0.07593100      -0.08511298      -0.24722229
O        8.66793874       6.08281984      17.91687745  T      -0.35631756       0.41883297      -0.22448321
O        6.92308569       7.87783135      18.41364952  T      -0.52402576       0.58846753       0.31980314
O        2.03606814       4.57774225       3.85049465  T      -0.60455357      -1.72226940      -0.37182511
O        1.57613051       2.48010629       2.07522891  T       0.85086988      -0.34909083      -2.58427533
O        3.83548695       2.69659394       4.16549187  T      -0.78878502       0.46523207       0.15095210
O        3.80032864       4.52818383       6.10561445  T      -0.69519983      -1.25840155      -0.86646877
O        1.61852835       2.97357264       5.79983994  T      -0.33760854       0.34402656       0.20372079
O        4.93613139       1.34110686       5.86841121  T       0.43564051       0.39592035      -0.58869275
O        5.23649233       0.93608543       3.15936157  T       0.88000978       0.42564999      -0.14128386
O        6.19039270       3.56205748       4.00650682  T       0.00263408      -0.53916690      -0.97541189
O        7.16267658       1.60117894       4.85791502  T       1.32611328       0.70566482       0.70683800
O        9.07093856       2.30697236       6.42766161  T       0.56719087       0.87641367       1.64391927
O        9.66126034       0.63378590       4.58997029  T       0.16450314       0.67209569      -0.85665906
O        1.03248679       9.71141877       2.50003676  T       0.49900805       0.00298827       0.22230255
O        1.13326998       8.06718894       4.67209052  T      -0.50346092      -0.60130922       0.34869918
O        9.87000000       6.98000000       2.02000000  F       0.00000000       0.00000000       0.00000000
O        5.35430455       6.02768432       4.62503893  T       0.52925419      -0.12132111       0.09140989
O        5.59000000       5.63000000       2.17000000  F       0.00000000       0.00000000       0.00000000
O        7.73546323       5.81428138       3.57348032  T       0.40321744      -0.06680841      -0.46573960
O        5.56121926       8.21689097       2.54540022  T      -0.58197533      -0.12906044       1.33399937
O        8.66803659       8.44455492       3.56923651  T       0.22864816       0.39263820      -0.14316285
O        3.48322488       4.12718502      11.55993920  T      -0.21050787      -0.27053917       0.39616960
O        1.10176271       4.85484231      11.41752414  T      -0.29628483      -0.16992844       0.29791403
O        1.76317129       0.84462752      10.27437639  T      -0.17238637      -0.93653663       0.01038887
O        2.67349446       3.18314977       9.24803913  T      -0.67416475       0.91719127      -0.47988019
O        3.64002848       1.07901277       8.27726346  T      -0.35114396       0.88870308       0.73679437
O        0.93005728       1.59740152       7.99281585  T      -0.05498571      -0.39608940       0.57530181
O        0.45922541       4.16888471       7.81781734  T       0.15455693      -0.09459616      -0.27346115
O        9.25311848       1.28546203      11.24544779  T      -0.74409011      -0.54541714      -0.88340722
O        6.03151146       2.54249154       7.85812364  T       0.35330773       0.15721004       0.77486900
O        5.26726111       4.08004726       9.83664871  T      -0.22543539      -0.08005896       0.26489410
O        7.45139317       2.47784825      10.00064574  T       0.30716017       0.21530548      -0.26572245
O        6.66182098       0.24244523      11.30402438  T      -1.55010190       0.30845510       0.77292500
O        7.45662699       4.79339139       8.73923707  T       0.02304207      -0.71404193      -0.35226881
O        8.03159679       9.84811265       6.65332587  T       0.40637431       0.15262756      -0.12502660
O        4.06694606       7.08501342       6.84970843  T       0.82864419      -0.60280092      -0.68810588
O        4.09337353       9.63213457      11.10913375  T       0.14500778       0.12610981      -0.75062501
O        3.01343762       8.28265937       8.88958621  T      -0.54136995      -0.11482000       0.32008521
O        1.54417876       6.58331763       7.16589868  T      -0.04878311      -0.24924782      -1.50478289
O        3.23478460       5.67386131       9.12640254  T      -0.87422487      -0.18204537       0.51597993
O        0.18942740       6.26944554       9.53115207  T       1.24859819      -0.91982077       0.65775579
O        2.31078923       7.36195829      11.17800120  T      -0.94519488      -0.74046711       0.36901033
O        4.91408705       7.28170258      10.40385099  T      -1.20406333      -0.59372757      -0.29360846
O        8.31809961      -0.03275207       9.22443568  T       0.28257687      -1.34437110      -0.22274981
O        7.51976501       7.15581536      11.31086644  T       0.43068076      -0.22057091       0.37091493
O        6.24032780       5.56008180       6.82936802  T       0.17086229       0.51287391      -0.25128390
O        5.85870526       9.85823599       7.96303022  T       0.22898972       0.03558526       0.10724423
O        8.94899163       6.16983448       7.12706131  T      -0.55805037       1.06863981      -0.77900110
O        7.14593942       7.65490189       8.21998158  T      -0.36086411       0.23503914       0.40688873
O        3.55000000       4.18000000       1.53000000  F       0.00000000       0.00000000       0.00000000
O        1.14000000       4.89000000       1.35000000  F       0.00000000       0.00000000       0.00000000
O        9.29000000       1.31000000       1.44000000  F       0.00000000       0.00000000       0.00000000
O        6.84000000       0.20000000       1.30000000  F       0.00000000       0.00000000       0.00000000
O        3.95000000       9.60000000       1.25000000  F       0.00000000       0.00000000       0.00000000
O        2.28000000       7.42000000       1.08000000  F       0.00000000       0.00000000       0.00000000
O        7.52000000       7.21000000       1.37000000  F       0.00000000       0.00000000       0.00000000
Si       2.05530925       3.98614580      12.38748149  T      -1.05663151       0.07368234       0.11009479
Si       2.89802674       3.65991131      14.99887713  T      -0.20128300       0.02848180      -0.42025495
Si       0.82887643       1.09158092      11.60610176  T       0.43057050      -0.60981498      -2.16376565
Si       8.36570465       1.00743900      15.67010316  T       0.62703521      -0.33261361       1.38748217
Si       5.56116124       2.10969049      14.47211832  T      -0.44916582       0.42830322       0.60702991
Si       4.75570976       5.77683179      16.12789162  T      -0.57063583      -1.08930978      -0.00175994
Si       0.03689568       9.20110313      13.83796429  T       0.61322053       0.40683596      -0.55863352
Si       6.22038896       5.16147339      13.63220950  T       0.54332450       0.57546334      -0.22472850
Si       5.33212387       9.88349400      12.19414761  T      -0.68316964       0.45273046      -0.01848010
Si       8.42236482       7.01637249      12.65176275  T       1.09206534      -0.27798962      -0.25298259
Si       3.15817255       4.27846725      20.22750372  T      -0.40319129      -1.10925479      -0.42884981
Si       2.10628934       1.53396332      19.06330900  T       0.24635035       0.38039983      -0.00418876
Si       0.50127748       2.74656768      16.90221008  T       0.44656682       1.08050529       0.84130965
Si       4.97170760       1.56063532      17.62321314  T       0.02045575       0.13815285      -0.54133969
Si       5.97598839       3.72108073      19.58836564  T       0.78330015       0.09794201      -1.50578208
Si       7.69232391       1.23511863      20.59128447  T      -0.20267404      -0.54824049       1.44796207
Si       2.56722113       8.79003823      20.44097182  T       0.21935139       0.87065338       0.68292476
Si       2.85170253       6.74091021      18.14567865  T      -0.05562350       0.37036089      -0.21489307
Si       1.10995211       6.13675994      21.31499617  T      -0.08311882       0.06632697      -0.93705972
Si       0.14519228       5.56528000      18.33985854  T       0.05605858       0.50926417      -1.05068969
Si       6.07988145       9.31263181      22.43987158  T      -0.72644843       0.92174738      -0.66257950
Si       7.06358017       6.24718451      18.19141534  T      -0.16393322      -0.33615841       0.22735772
Si       7.18578464       9.47378491      18.11407431  T      -0.24082424       0.03297437      -0.06280565
Si       2.10000000       3.98000000       2.32000000  F       0.00000000       0.00000000       0.00000000
Si       2.84944089       3.68155245       4.99575286  T      -0.26262245       1.35472013      -0.02674478
Si       0.89000000       1.15000000       1.77000000  F       0.00000000       0.00000000       0.00000000
Si       8.43036347       1.04445289       5.63098023  T       0.50423514      -0.89262143       0.36384833
Si       5.52694719       2.00879363       4.43083137  T      -0.50517107       0.61187771       0.50628025
Si       4.81117323       5.82127074       6.14850067  T       0.02117326       0.52958079      -0.19120823
Si       0.10333730       9.22057804       3.95739681  T       1.96761334       0.75527420      -0.60881253
Si       6.20643766       5.09853082       3.61964678  T       0.46012777      -0.54929607       0.31944965
Si       5.42000000       9.77000000       2.06000000  F       0.00000000       0.00000000       0.00000000
Si       8.43698818       7.02466247       2.74725895  T      -0.48488474       0.45889339       0.07913351
Si       3.64058943       4.28846040       9.89862883  T      -1.02501035       0.31375644      -0.03512452
Si       2.24681208       1.63045637       8.95280696  T       0.44383781       0.15074603      -0.53887375
Si       0.53667406       2.79409341       7.00930873  T       0.69914051      -0.74336311      -0.25878243
Si       5.09999943       1.21919347       7.47814783  T       1.52686859      -0.24501126       0.30855879
Si       6.56683885       3.46271643       9.10522729  T      -0.28720201       0.02005997       0.69393464
Si       7.85510496       0.97940380      10.46333380  T      -0.31347982       0.93481646      -0.12912007
Si       3.53305168       8.19845427      10.41974816  T       0.35817544      -0.28709121       0.43876009
Si       2.95591828       6.87977416       8.03493085  T      -0.36415790      -0.25103025       0.16989109
Si       0.91694910       6.39472865      10.99966072  T       0.75409434      -0.32378664      -0.55312371
Si       0.29801324       5.78729381       7.96863971  T       0.22566159       0.28002445       0.27808484
Si       5.89751787       7.05672264      11.64839573  T       0.50517496      -0.34657262       1.51363401
Si       7.42746294       6.10164698       7.78153977  T       0.82542582       0.33139405      -0.23796812
Si       7.34717672       9.29460841       8.03002416  T      -0.31593327       0.23982055      -0.02867917
Si       7.93000000       1.02000000       0.50000000  F       0.00000000       0.00000000       0.00000000
Si       0.91000000       6.44000000       0.98000000  F       0.00000000       0.00000000       0.00000000
Si       5.91000000       7.08000000       1.49000000  F       0.00000000       0.00000000       0.00000000
C        4.97987648       4.99758346      22.42403901  T      -0.54169690       0.07527651     -13.02406029
F        5.79388617       6.06129366      22.43594221  T       0.25240122      -0.19737892     -20.89669039
F        5.80031694       3.94155296      22.45238703  T       0.73466516      -0.08942101     -20.00502997
153
Lattice="10.0 0.0 0.0 0.0 10.0 0.0 0.0 0.0 43.74" Properties=species:S:1:pos:R:3:move_mask:L:1:momenta:R:3 etch=trj_CF2_30eV_case1 idx=0 index=0 source=trj_CF2_30eV_case1/0000/OUTCAR converged=T time_fs=41.0 pbc="T T T"
O        2.16658913       4.61417297      13.88498828  T      -0.32433448      -0.59512044      -0.08164731
O        1.42464975       2.46836227      12.27090011  T      -0.36540410       0.28304744      -0.83623370
O        3.80475916       2.58006300      14.27127225  T      -0.49981486       0.62876356      -0.17419205
O        3.72267795       4.49570399      16.13454928  T       0.38664154       0.11932775       0.35499043
O        1.74484138       2.87506174      15.88324854  T      -0.82244070      -0.50784402       0.31082386
O        5.04839379       1.72780584      16.05063625  T       0.29386735       0.09911982       1.19894526
O        5.03264965       0.98170186      13.31613337  T       0.26257871       0.36523433       0.16762850
O        6.14316461       3.61030425      14.03325271  T      -0.07225509      -0.35725451      -0.22717460
O        7.16402995       1.50103747      14.76017388  T       0.78541288       0.55083591       0.13854963
O        8.94249640       2.35723676      16.45427591  T      -0.17138162       0.66882766       0.40706343
O        9.65810531       0.46054355      14.83969320  T       0.45141748       0.43648439       0.61899210
O        0.90050666       9.79060100      12.59653544  T      -0.41541369       0.37716770      -0.09562124
O        1.09572556       8.13736169      14.70697833  T      -0.59183985      -0.63039283       0.53050180
O       10.01128245       6.87589665      12.29204411  T      -0.03206402      -0.75804955       0.49095530
O        5.35036410       6.05484034      14.65578198  T       0.22161499      -1.22169649       0.60281318
O        5.65294729       5.48618953      12.10512225  T       0.22489471      -0.49585885       0.39040898
O        7.72465300       5.86427834      13.59174466  T       0.16700768       0.27029293      -0.63454076
O        5.59356038       8.28503613      12.77336769  T       0.03718574       1.24741174       1.57395661
O        8.62062371       8.37808143      13.58667629  T       0.01862611       0.62449039      -0.51355418
O        2.42667559       5.10427003      21.42526896  T      -0.49228693      -0.25163813      -1.05283717
O        0.24959192       6.10186130      22.63640475  T       0.12174099      -0.72805525      -0.67487253
O        1.90255788       0.24909917      20.08773116  T       0.32876943       0.69938871      -0.01255094
O        2.36611807       2.86335987      19.95781962  T       1.76683863       0.96101742       0.62739782
O        3.48206152       1.31609136      18.17272378  T       0.05648240       0.33339750      -0.55335204
O        0.79997351       1.61357092      18.07859705  T       0.12314420       0.00974040       0.46691632
O        0.37254935       4.09627766      17.81508928  T      -0.36958234       0.87171466       0.20365658
O        9.07577173       1.40935855      21.44243434  T      -0.12713114       0.49506881      -0.02617918
O        5.49531918       3.03122894      18.20766792  T       0.76721213      -0.48926836      -0.48274253
O        4.70709340       3.91215926      20.66652992  T       0.26451886      -0.21995926      -0.57460295
O        7.07340978       2.75290951      20.36450113  T       0.09332636       0.04514388       0.06330135
O        6.51323343       0.51027479      21.51040634  T       0.74974942       0.28516827       0.10866649
O        6.59045439       5.21919782      19.38310926  T      -0.39653865      -0.41384764       0.33765099
O        7.94394138       9.84850214      16.74510250  T       0.42928518       0.57516058      -0.58097426
O        3.82134367       6.93501447      16.83268553  T      -0.49104158      -0.61001282       0.24553054
O        3.83131640       9.37710259      21.34323412  T       0.24021515      -0.00508670      -0.52433796
O        3.25416222       8.01643968      19.13381176  T      -0.39532702       0.09896847       0.26537177
O        1.29079002       6.61465534      17.80639904  T      -0.67255753      -0.65770738       0.76534787
O        3.22181370       5.28571962      18.93944949  T       0.28269806       0.03149129       0.92846230
O        0.16318207       5.61793479      20.00577005  T      -0.05691695       0.95664268       0.67580758
O        1.53318400       7.74436042      21.19095146  T       0.24112812      -0.68761320       0.53016004
O        4.64925878       8.33915138      22.02038403  T      -0.15899658      -0.30383412       0.57417937
O        8.06241932       0.21503307      19.34886948  T      -0.13491747       0.27263975      -0.16346666
O        6.84541825       8.76094467      23.66959997  T      -0.72997561      -0.58640029      -0.43480040
O        6.17348122       5.80461577      16.92942818  T      -0.05422186      -0.31818638       0.74874353
O        5.71554754       0.21004504      18.21146715  T      -0.03182501      -0.04416838      -0.28700141
O        8.66570281       6.08532848      17.91542009  T      -0.37090616       0.39803244      -0.24973013
O        6.91986167       7.88148843      18.41564990  T      -0.52592928       0.59914385       0.33160051
O        2.03233319       4.56702364       3.84797782  T      -0.61353910      -1.76630254      -0.44723569
O        1.58150110       2.47793145       2.05944843  T       0.89990750      -0.35688492      -2.55592321
O        3.83067545       2.69951116       4.16645889  T      -0.77662920       0.48350205       0.16307450
O        3.79583644       4.52046887       6.10021149  T      -0.76287637      -1.24783787      -0.89056037
O        1.61659970       2.97565733       5.80110013  T      -0.28886524       0.33523805       0.20531428
O        4.93874413       1.34352824       5.86489844  T       0.41521480       0.39168169      -0.55061755
O        5.24211306       0.93865433       3.15865318  T       0.95053987       0.41139133      -0.08905939
O        6.19034737       3.55869946       4.00035348  T      -0.01736861      -0.55405280      -1.02858516
O        7.17061647       1.60534584       4.86197916  T       1.25642074       0.65295755       0.61581928
O        9.07464020       2.31255769       6.43788045  T       0.63357130       0.93685198       1.68041125
O        9.66228773       0.63776225       4.58474990  T       0.17034126       0.62280315      -0.84298137
O        1.03546102       9.71167052       2.50162180  T       0.47022817       0.07968022       0.29310134
O        1.12978944       8.06401813       4.67399562  T      -0.62989554      -0.43130513       0.27179282
O        9.87000000       6.98000000       2.02000000  F       0.00000000       0.00000000       0.00000000
O        5.35728939       6.02711789       4.62557674  T       0.44268621      -0.06354297       0.08365843
O        5.59000000       5.63000000       2.17000000  F       0.00000000       0.00000000       0.00000000
O        7.73812916       5.81381137       3.57062685  T       0.46388121      -0.08742288      -0.46284235
O        5.55760452       8.21626760       2.55389107  T      -0.59436472      -0.07517799       1.42890195
O        8.66942896       8.44687438       3.56836605  T       0.22583941       0.36316352      -0.14028955
O        3.48175700       4.12557159      11.56218449  T      -0.26757227      -0.25467080       0.33424861
O        1.09987136       4.85378982      11.41925264  T      -0.32033882      -0.17225910       0.26457576
O        1.76203222       0.83873978      10.27459455  T      -0.19624754      -0.98004499       0.05653919
O        2.66924189       3.18869562       9.24504274  T      -0.71175825       0.88706457      -0.49619209
O        3.63800782       1.08448325       8.28159591  T      -0.30158055       0.89177902       0.67164322
O        0.93001977       1.59478536       7.99650822  T       0.04254142      -0.45527037       0.62636819
O        0.46012340       4.16864278       7.81635326  T       0.13768837       0.01727369      -0.20314464
O        9.24857717       1.28203204      11.24013794  T      -0.73054846      -0.57161722      -0.84434371
O        6.03353820       2.54335957       7.86285337  T       0.30565196       0.12355901       0.76393899
O        5.26556477       4.07951465       9.83813298  T      -0.32768664      -0.09317460       0.21865434
O        7.45327084       2.47912779       9.99914582  T       0.30442380       0.20133260      -0.22236835
O        6.65253352       0.24453812      11.30866881  T      -1.46872929       0.37605568       0.73495833
O        7.45691954       4.78888805       8.73742108  T       0.07286218      -0.75003610      -0.24068152
O        8.03428473       9.84876185       6.65244414  T       0.46806785       0.05694514      -0.15998611
O        4.07209024       7.08116774       6.84552580  T       0.84206712      -0.64705892      -0.66975970
O        4.09397374       9.63267319      11.10447491  T       0.05028868       0.04909547      -0.76615900
O        3.01002886       8.28192519       8.89132937  T      -0.56881954      -0.12503892       0.24740947
O        1.54395504       6.58168672       7.15730567  T      -0.02322009      -0.28169537      -1.29253905
O        3.22934644       5.67277267       9.12940747  T      -0.89738674      -0.17046275       0.46126098
O        0.19721452       6.26400201       9.53521060  T       1.28594760      -0.85311844       0.65964356
O        2.30468036       7.35731259      11.18018419  T      -1.04039753      -0.76975060       0.34084855
O        4.90663604       7.27811675      10.40189797  T      -1.21693584      -0.57617187      -0.33678342
O        8.31938102      -0.04107507       9.22302791  T       0.13381169      -1.36378370      -0.23271274
O        7.52230808       7.15454703      11.31306584  T       0.39536770      -0.19225386       0.34442099
O        6.24134695       5.56325558       6.82789992  T       0.16121809       0.52055886      -0.22648641
O        5.85976554       9.85856912       7.96381625  T       0.11517250       0.07303088       0.14858676
O        8.94544611       6.17642944       7.12241812  T      -0.59226376       1.07858672      -0.73143272
O        7.14381583       7.65649725       8.22248528  T      -0.33086826       0.28342317       0.40828014
O        3.55000000       4.18000000       1.53000000  F       0.00000000       0.00000000       0.00000000
O        1.14000000       4.89000000       1.35000000  F       0.00000000       0.00000000       0.00000000
O        9.29000000       1.31000000       1.44000000  F       0.00000000       0.00000000       0.00000000
O        6.84000000       0.20000000       1.30000000  F       0.00000000       0.00000000       0.00000000
O        3.95000000       9.60000000       1.25000000  F       0.00000000       0.00000000       0.00000000
O        2.28000000       7.42000000       1.08000000  F       0.00000000       0.00000000       0.00000000
O        7.52000000       7.21000000       1.37000000  F       0.00000000       0.00000000       0.00000000
Si       2.05172481       3.98622270      12.38762138  T      -0.99203335      -0.03052656      -0.03079102
Si       2.89730885       3.65983829      14.99758601  T      -0.21054638      -0.07028052      -0.31505021
Si       0.83040649       1.08961225      11.59851382  T       0.44105706      -0.51457980      -2.17179130
Si       8.36790646       1.00643143      15.67498029  T       0.63231295      -0.23971604       1.39807281
Si       5.55938730       2.11101851      14.47430094  T      -0.56421583       0.33016576       0.64155645
Si       4.75366247       5.77310760      16.12792201  T      -0.59753068      -1.03895677       0.02137469
Si       0.03904906       9.20240815      13.83628695  T       0.61677988       0.33978479      -0.39765872
Si       6.22231950       5.16348175      13.63127863  T       0.56136039       0.56840843      -0.30575761
Si       5.32976351       9.88481474      12.19408221  T      -0.66836567       0.30349523      -0.01643590
Si       8.42632736       7.01545659      12.65110876  T       1.17368701      -0.24392638      -0.11974373
Si       3.15657762       4.27456034      20.22588011  T      -0.50872089      -1.12010458      -0.49999920
Si       2.10725550       1.53509944      19.06321975  T       0.30779544       0.27155761      -0.04611480
Si       0.50264318       2.75023946      16.90531399  T       0.33092874       1.01773870       0.93383314
Si       4.97174911       1.56108646      17.62133746  T       0.00402804       0.11793890      -0.52719789
Si       5.97889847       3.72137433      19.58319878  T       0.88320672       0.06605360      -1.44975086
Si       7.69165006       1.23322627      20.59632800  T      -0.18063975      -0.53202232       1.43245219
Si       2.56793008       8.79303351      20.44316809  T       0.18393527       0.83999362       0.57311070
Si       2.85182809       6.74217041      18.14504046  T       0.12535374       0.34898746      -0.14775297
Si       1.10965078       6.13693180      21.31143375  T      -0.08890614       0.03148367      -1.09921852
Si       0.14525716       5.56724463      18.33640517  T      -0.02249799       0.61532042      -0.91861733
Si       6.07726419       9.31545345      22.43778525  T      -0.76995828       0.68981353      -0.52868201
Si       7.06317080       6.24611700      18.19216041  T      -0.07048924      -0.27189489       0.19990071
Si       7.18486291       9.47396299      18.11407614  T      -0.28462624       0.07088074       0.06199266
Si       2.10000000       3.98000000       2.32000000  F       0.00000000       0.00000000       0.00000000
Si       2.84867284       3.68622686       4.99583813  T      -0.17911762       1.31400588       0.07545114
Si       0.89000000       1.15000000       1.77000000  F       0.00000000       0.00000000       0.00000000
Si       8.43209383       1.04151209       5.63231900  T       0.48971241      -0.78369930       0.40285795
Si       5.52510534       2.01093349       4.43261156  T      -0.54623710       0.61154838       0.50926906
Si       4.81126680       5.82304128       6.14762030  T       0.03268956       0.47671835      -0.31362130
Si       0.11045143       9.22285483       3.95515746  T       2.09768060       0.54620968      -0.67093931
Si       6.20809666       5.09676968       3.62080392  T       0.48888529      -0.45712298       0.34044283
Si       5.42000000       9.77000000       2.06000000  F       0.00000000       0.00000000       0.00000000
Si       8.43523077       7.02644324       2.74758959  T      -0.51797574       0.56031856       0.10954830
Si       3.63719961       4.28947420       9.89880619  T      -0.91226062       0.26478181       0.13843494
Si       2.24858713       1.63101974       8.95089510  T       0.56841502       0.17236212      -0.55097831
Si       0.53892356       2.79148562       7.00812444  T       0.58812086      -0.74651166      -0.41527608
Si       5.10520841       1.21843875       7.47923227  T       1.44863221      -0.18418937       0.31003896
Si       6.56573940       3.46289945       9.10754617  T      -0.34152539       0.08570485       0.63227005
Si       7.85412718       0.98257139      10.46288457  T      -0.24918663       0.87134152      -0.12836624
Si       3.53438841       8.19753085      10.42151276  T       0.40203912      -0.24126467       0.57033345
Si       2.95453393       6.87893374       8.03536413  T      -0.42650140      -0.22948359       0.07574990
Si       0.91973891       6.39371601      10.99792506  T       0.84005349      -0.25623951      -0.43479197
Si       0.29882318       5.78826658       7.96937024  T       0.23592819       0.27485373       0.13738318
Si       5.89925628       7.05553366      11.65378227  T       0.48561717      -0.33028847       1.56361152
Si       7.43045779       6.10282986       7.78061851  T       0.88420558       0.34407358      -0.28754456
Si       7.34631391       9.29536350       8.02998768  T      -0.17515795       0.19042485       0.00709556
Si       7.93000000       1.02000000       0.50000000  F       0.00000000       0.00000000       0.00000000
Si       0.91000000       6.44000000       0.98000000  F       0.00000000       0.00000000       0.00000000
Si       5.91000000       7.08000000       1.49000000  F       0.00000000       0.00000000       0.00000000
C        4.97604565       4.99810063      22.31783744  T      -0.39071160       0.04925675     -12.94380994
F        5.79509129       6.06012316      22.32782105  T       0.21308628      -0.25452919     -20.92900429
F        5.80434887       3.94123923      22.34966900  T       0.83272076      -0.03025683     -19.71327027
153
Lattice="10.0 0.0 0.0 0.0 10.0 0.0 0.0 0.0 43.74" Properties=species:S:1:pos:R:3:move_mask:L:1:momenta:R:3 etch=trj_CF2_30eV_case1 idx=0 index=0 source=trj_CF2_30eV_case1/0000/OUTCAR converged=T time_fs=42.0 pbc="T T T"
O        2.16453000       4.61048662      13.88446871  T      -0.34682502      -0.60464035      -0.08662818
O        1.42235321       2.47002843      12.26591472  T      -0.38348997       0.25768393      -0.78832667
O        3.80177912       2.58422632      14.27009478  T      -0.46879630       0.72515950      -0.20923585
O        3.72524849       4.49657755      16.13670476  T       0.44748929       0.16179067       0.34590965
O        1.73956717       2.87197335      15.88509561  T      -0.89176398      -0.49619984       0.28876395
O        5.05038472       1.72838126      16.05786272  T       0.35497532       0.08930225       1.14717202
O        5.03462033       0.98372755      13.31704352  T       0.37850398       0.29455720       0.12918505
O        6.14276792       3.60819364      14.03179014  T      -0.05664854      -0.32764389      -0.24977161
O        7.16865108       1.50433453      14.76083938  T       0.71875244       0.52316056       0.07884290
O        8.94185792       2.36137891      16.45671836  T      -0.03580755       0.68022763       0.38924535
O        9.66098793       0.46294568      14.84324497  T       0.48824011       0.34482165       0.53709187
O        0.89797132       9.79294642      12.59587556  T      -0.40970087       0.38743424      -0.12050942
O        1.09183981       8.13372349      14.71005270  T      -0.67421924      -0.55414871       0.47050414
O       10.01101143       6.87119213      12.29463160  T      -0.05415336      -0.77465947       0.35071547
O        5.35139226       6.04743324      14.65948559  T       0.11359497      -1.18975232       0.60271896
O        5.65440969       5.48342289      12.10784059  T       0.25062950      -0.40381516       0.49318847
O        7.72586182       5.86585908      13.58786852  T       0.22595904       0.24370660      -0.62670871
O        5.59380433       8.29276591      12.78274982  T       0.04236288       1.26621535       1.47944217
O        8.62079882       8.38210389      13.58345525  T       0.03851682       0.68496334      -0.53598837
O        2.42345619       5.10288419      21.41876867  T      -0.55559025      -0.20037177      -1.06308138
O        0.25006104       6.09731834      22.63270358  T       0.03099952      -0.75192355      -0.53030277
O        1.90459987       0.25326557      20.08753882  T       0.33642418       0.65678275      -0.04918921
O        2.37698820       2.86949608      19.96171802  T       1.76981021       1.02790007       0.63879222
O        3.48199720       1.31818322      18.16945702  T      -0.07847619       0.34830664      -0.50963064
O        0.80103858       1.61361949      18.08152804  T       0.22330793       0.00751445       0.48778294
O        0.37035855       4.10153984      17.81614206  T      -0.34342297       0.83911037       0.13863010
O        9.07508655       1.41243122      21.44228983  T      -0.09551326       0.50585586      -0.02051007
O        5.50005888       3.02814669      18.20482994  T       0.77646497      -0.51296515      -0.44025337
O        4.70812046       3.91085137      20.66193841  T       0.05670470      -0.20564068      -0.93763132
O        7.07395777       2.75304612      20.36459601  T       0.08506593      -0.00120015      -0.03370821
O        6.51766151       0.51207864      21.51092036  T       0.68999216       0.30069232       0.06067812
O        6.58802794       5.21671146      19.38525705  T      -0.39261320      -0.39342736       0.36069511
O        7.94656514       9.85182765      16.74154808  T       0.42271872       0.50423932      -0.57103977
O        3.81821855       6.93125562      16.83428978  T      -0.52583748      -0.61388331       0.27570506
O        3.83282074       9.37719144      21.34018531  T       0.25072780       0.03417735      -0.46782109
O        3.25142616       8.01696428      19.13546862  T      -0.49592007       0.07179299       0.27350507
O        1.28647094       6.61068786      17.81095440  T      -0.72873828      -0.63155120       0.71736405
O        3.22356942       5.28610733      18.94498954  T       0.28942750       0.09669635       0.87405364
O        0.16318899       5.62392902      20.01001987  T       0.05728061       0.99476008       0.70337978
O        1.53488819       7.74017518      21.19401661  T       0.31575780      -0.67203953       0.46719219
O        4.64873486       8.33775579      22.02392978  T      -0.01236766      -0.14950373       0.58006437
O        8.06136565       0.21677647      19.34790049  T      -0.20844776       0.29540644      -0.15166639
O        6.84072831       8.75746729      23.66670732  T      -0.79764312      -0.54604187      -0.50751834
O        6.17309222       5.80246453      16.93406671  T      -0.07476998      -0.38260501       0.76063167
O        5.71548142       0.20990299      18.20958421  T       0.00965804      -0.00181905      -0.32624524
O        8.66339630       6.08770393      17.91381664  T      -0.37927195       0.37545660      -0.27202321
O        6.91663059       7.88515069      18.41771912  T      -0.52634165       0.59023345       0.34226948
O        2.02852043       4.55608479       3.84501377  T      -0.62980461      -1.79408318      -0.51701361
O        1.58719303       2.47574838       2.04384783  T       0.95541368      -0.35202436      -2.52577232
O        3.82597097       2.70251446       4.16748405  T      -0.75387427       0.49319993       0.16987301
O        3.79101592       4.51293244       6.09471166  T      -0.80204881      -1.20031682      -0.89771287
O        1.61499877       2.97769058       5.80234630  T      -0.23105028       0.32723048       0.19924823
O        4.94122710       1.34590467       5.86169946  T       0.39334859       0.38135705      -0.48685733
O        5.24815917       0.94113857       3.15827139  T       1.01848246       0.39796759      -0.03507133
O        6.19017991       3.55526254       3.99388169  T      -0.03712025      -0.56458634      -1.07914935
O        7.17806681       1.60920903       4.86546556  T       1.16719067       0.60666182       0.51897874
O        9.07866424       2.31841359       6.44824923  T       0.67182445       0.96474501       1.69275533
O        9.66335338       0.64142854       4.57962873  T       0.17691199       0.57098937      -0.82434079
O        1.03826505       9.71240338       2.50362541  T       0.44367155       0.15961040       0.35848828
O        1.12554165       8.06189390       4.67542787  T      -0.75307612      -0.26077465       0.19487048
O        9.87000000       6.98000000       2.02000000  F       0.00000000       0.00000000       0.00000000
O        5.35973755       6.02689996       4.62606348  T       0.35465959      -0.00790786       0.07449120
O        5.59000000       5.63000000       2.17000000  F       0.00000000       0.00000000       0.00000000
O        7.74114498       5.81319657       3.56780679  T       0.51709498      -0.11393423      -0.45486063
O        5.55393357       8.21595454       2.56291370  T      -0.60019953      -0.02821319       1.50703704
O        8.67081869       8.44901694       3.56751494  T       0.22771002       0.33508985      -0.13686175
O        3.47994131       4.12406147      11.56403459  T      -0.32360132      -0.23693455       0.26769199
O        1.09782477       4.85273323      11.42076772  T      -0.34671140      -0.17141544       0.22854424
O        1.76078757       0.83260796      10.27502668  T      -0.20656574      -1.01598660       0.07981687
O        2.66475002       3.19402030       9.24194770  T      -0.75177663       0.84555980      -0.51177901
O        3.63638017       1.08994707       8.28548234  T      -0.22347310       0.88654641       0.59174496
O        0.93057535       1.59182254       8.00049253  T       0.13782787      -0.50854480       0.66984188
O        0.46091364       4.16910690       7.81532385  T       0.11953511       0.13439065      -0.13233160
O        9.24419571       1.27844641      11.23509967  T      -0.69216377      -0.59607243      -0.79503449
O        6.03525253       2.54398981       7.86748500  T       0.25171413       0.08005974       0.74303938
O        5.26323476       4.07890549       9.83933391  T      -0.43131561      -0.10507472       0.17257617
O        7.45512948       2.48031969       9.99791936  T       0.30077515       0.18696700      -0.17686829
O        6.64385042       0.24708887      11.31299951  T      -1.35396080       0.45718915       0.67121602
O        7.45752759       4.78421310       8.73626614  T       0.12576074      -0.76963427      -0.13719013
O        8.03733224       9.84879364       6.65138384  T       0.52351520      -0.04822643      -0.18326460
O        4.07723496       7.07709820       6.84153067  T       0.82896943      -0.67565465      -0.62730367
O        4.09399047       9.63273650      11.09973634  T      -0.04472288      -0.02839613      -0.77629272
O        3.00645621       8.28111738       8.89262357  T      -0.59459979      -0.13870812       0.17441170
O        1.54390168       6.57986250       7.15004404  T       0.00653165      -0.31213567      -1.07163368
O        3.22376521       5.67178785       9.13205119  T      -0.92067487      -0.14864774       0.39861788
O        0.20519558       6.25897290       9.53920293  T       1.31176814      -0.78489209       0.63604311
O        2.29806153       7.35254004      11.18217434  T      -1.11086303      -0.78152319       0.30634923
O        4.89920730       7.27460893      10.39977431  T      -1.19693400      -0.56837150      -0.34939022
O        8.31973423      -0.04946638       9.22161000  T      -0.01936277      -1.36664735      -0.22609304
O        7.52459662       7.15345791      11.31508607  T       0.34799556      -0.16223961       0.31295463
O        6.24230844       5.56646894       6.82659156  T       0.15210234       0.52570444      -0.19929715
O        5.86011140       9.85913181       7.96485251  T      -0.00284309       0.10997902       0.18876878
O        8.94176662       6.18306742       7.11809979  T      -0.60175756       1.08271333      -0.67352573
O        7.14187711       7.65836783       8.22499039  T      -0.30063281       0.32438594       0.40731542
O        3.55000000       4.18000000       1.53000000  F       0.00000000       0.00000000       0.00000000
O        1.14000000       4.89000000       1.35000000  F       0.00000000       0.00000000       0.00000000
O        9.29000000       1.31000000       1.44000000  F       0.00000000       0.00000000       0.00000000
O        6.84000000       0.20000000       1.30000000  F       0.00000000       0.00000000       0.00000000
O        3.95000000       9.60000000       1.25000000  F       0.00000000       0.00000000       0.00000000
O        2.28000000       7.42000000       1.08000000  F       0.00000000       0.00000000       0.00000000
O        7.52000000       7.21000000       1.37000000  F       0.00000000       0.00000000       0.00000000
Si       2.04837511       3.98592842      12.38726317  T      -0.92276860      -0.13825694      -0.17436670
Si       2.89654561       3.65942101      14.99669031  T      -0.22745598      -0.16784052      -0.19436244
Si       0.83194217       1.08798836      11.59093142  T       0.43377506      -0.41302247      -2.16036775
Si       8.37012951       1.00578409      15.67986171  T       0.63928474      -0.12680585       1.38953479
Si       5.55722104       2.11199547      14.47660758  T      -0.67332865       0.22790513       0.67752141
Si       4.75154533       5.76957260      16.12805377  T      -0.61046421      -0.98102649       0.05604963
Si       0.04120265       9.20348240      13.83519721  T       0.61359378       0.27501047      -0.22340827
Si       6.22431990       5.16542337      13.63008298  T       0.58326269       0.53757597      -0.37559382
Si       5.32743849       9.88562317      12.19404595  T      -0.66284273       0.15996050      -0.00223997
Si       8.43057285       7.01467705      12.65093085  T       1.25357578      -0.19996724       0.01870552
Si       3.15461273       4.27066273      20.22400341  T      -0.61543944      -1.10291901      -0.57369565
Si       2.10845135       1.53587697      19.06299170  T       0.37744684       0.17558303      -0.08323222
Si       0.50357363       2.75367886      16.90874316  T       0.19822489       0.94776437       1.02720625
Si       4.97173931       1.56144909      17.61954965  T      -0.00917159       0.08748484      -0.49091414
Si       5.98218184       3.72151946      19.57821673  T       0.99725101       0.01285741      -1.40097778
Si       7.69107259       1.23140764      20.60128370  T      -0.14742235      -0.50618880       1.39800812
Si       2.56849635       8.79590182      20.44498243  T       0.13809644       0.79823099       0.46485919
Si       2.85256433       6.74334407      18.14465764  T       0.29260246       0.32093149      -0.06915729
Si       1.10933073       6.13697859      21.30731571  T      -0.09422357      -0.00479975      -1.25354179
Si       0.14501474       5.56958902      18.33346312  T      -0.11948027       0.72580825      -0.75886689
Si       6.07449695       9.31744908      22.43618037  T      -0.81223243       0.45059948      -0.38845854
Si       7.06308419       6.24529593      18.19282044  T       0.02028263      -0.19544888       0.17864992
Si       7.18380386       9.47429243      18.11449634  T      -0.31912754       0.11946901       0.17621005
Si       2.10000000       3.98000000       2.32000000  F       0.00000000       0.00000000       0.00000000
Si       2.84817204       3.69071896       4.99627849  T      -0.11016511       1.25049603       0.17567237
Si       0.89000000       1.15000000       1.77000000  F       0.00000000       0.00000000       0.00000000
Si       8.43381416       1.03900006       5.63380349  T       0.49817233      -0.64816379       0.44668750
Si       5.52313651       2.01307019       4.43437945  T      -0.57794401       0.61011065       0.49924479
Si       4.81140433       5.82457034       6.14629973  T       0.04643020       0.39185877      -0.44256138
Si       0.11799276       9.22439813       3.95270883  T       2.21150485       0.33656235      -0.72828698
Si       6.20985928       5.09533649       3.62201784  T       0.51935648      -0.36199108       0.35199278
Si       5.42000000       9.77000000       2.06000000  F       0.00000000       0.00000000       0.00000000
Si       8.43337737       7.02858658       2.74802278  T      -0.53971400       0.66603313       0.13771456
Si       3.63421269       4.29030635       9.89960576  T      -0.79539631       0.21015899       0.31983160
Si       2.25077135       1.63166698       8.94897330  T       0.67767298       0.19849981      -0.54442938
Si       0.54079556       2.78888011       7.00642529  T       0.48405299      -0.74185405      -0.55220438
Si       5.11011478       1.21791833       7.48030783  T       1.35411832      -0.11124952       0.30355781
Si       6.56445017       3.46332122       9.10965182  T      -0.39559101       0.15617915       0.57225620
Si       7.85334152       0.98547003      10.46243211  T      -0.20352007       0.78155560      -0.13105743
Si       3.53583818       8.19676423      10.42373531  T       0.42237892      -0.19763773       0.69977054
Si       2.95294099       6.87816916       8.03544988  T      -0.48329915      -0.20772589      -0.02830827
Si       0.92281760       6.39292958      10.99664431  T       0.91898903      -0.19480226      -0.29367524
Si       0.29965480       5.78920916       7.96958997  T       0.23819881       0.26306414      -0.01313929
Si       5.90089664       7.05442968      11.65931528  T       0.44951140      -0.29810632       1.59726090
Si       7.43363009       6.10404808       7.77953696  T       0.92667291       0.35155650      -0.32930752
Si       7.34596196       9.29593242       8.03006886  T      -0.02483978       0.13371013       0.03835982
Si       7.93000000       1.02000000       0.50000000  F       0.00000000       0.00000000       0.00000000
Si       0.91000000       6.44000000       0.98000000  F       0.00000000       0.00000000       0.00000000
Si       5.91000000       7.08000000       1.49000000  F       0.00000000       0.00000000       0.00000000
C        4.97353479       4.99836553      22.21239140  T      -0.22053604       0.01396297     -12.83870348
F        5.79608591       6.05867162      22.21951039  T       0.17139706      -0.30557454     -20.97033114
F        5.80901133       3.94125325      22.24869239  T       0.98263123       0.03701270     -19.32785140
153
Lattice="10.0 0.0 0.0 0.0 10.0 0.0 0.0 0.0 43.74" Properties=species:S:1:pos:R:3:move_mask:L:1:momenta:R:3 etch=trj_CF2_30eV_case1 idx=0 index=0 source=trj_CF2_30eV_case1/0000/OUTCAR converged=T time_fs=43.0 pbc="T T T"
O        2.16232720       4.60675835      13.88393420  T      -0.37098991      -0.60903660      -0.08659222
O        1.41993348       2.47150653      12.26121472  T      -0.40539628       0.22197786      -0.74324314
O        3.79902570       2.58894212      14.26870416  T      -0.42583070       0.80842978      -0.24368526
O        3.72813858       4.49765395      16.13878417  T       0.49056007       0.18515232       0.33028284
O        1.73393055       2.86898867      15.88677365  T      -0.94065678      -0.47422902       0.25595565
O        5.05275443       1.72891206      16.06464332  T       0.41704519       0.08451141       1.05418936
O        5.03728748       0.98531889      13.31772406  T       0.48928627       0.22394123       0.09303627
O        6.14247185       3.60630582      14.03018121  T      -0.03956820      -0.28515627      -0.27471550
O        7.17284548       1.50746063      14.76114949  T       0.64680957       0.49507094       0.02303658
O        8.94206224       2.36558550      16.45906162  T       0.10264082       0.68960988       0.37460619
O        9.66410439       0.46476837      14.84628185  T       0.52710020       0.24831820       0.45187080
O        0.89548310       9.79536350      12.59504527  T      -0.40023816       0.40036839      -0.15081261
O        1.08744529       8.13056246      14.71275166  T      -0.75734921      -0.47518003       0.40839283
O       10.01063762       6.86638342      12.29634050  T      -0.06576088      -0.79183028       0.20521580
O        5.35176340       6.04024529      14.66317193  T       0.00789334      -1.15047238       0.59694062
O        5.65601495       5.48124624      12.11115704  T       0.27123599      -0.30384612       0.58496006
O        7.72741868       5.86726117      13.58406416  T       0.28028141       0.21208291      -0.61109487
O        5.59408112       8.30054002      12.79150654  T       0.04783274       1.26202615       1.37063913
O        8.62109706       8.38648237      13.58009217  T       0.05862148       0.74032474      -0.55980123
O        2.41986414       5.10180276      21.41223152  T      -0.61331071      -0.15268830      -1.06484574
O        0.24997488       6.09262768      22.62989358  T      -0.05854117      -0.77612567      -0.38547041
O        1.90668874       0.25715358      20.08713663  T       0.34400697       0.60879878      -0.08089214
O        2.38780290       2.87587490      19.96562457  T       1.74835625       1.03924252       0.62996395
O        3.48109214       1.32037095      18.16647583  T      -0.21642920       0.36460753      -0.46078009
O        0.80270927       1.61367761      18.08458539  T       0.32020001       0.01279768       0.50801123
O        0.36833836       4.10655052      17.81678700  T      -0.31417032       0.79054928       0.07124615
O        9.07460386       1.41556985      21.44218594  T      -0.06131327       0.51655165      -0.01304249
O        5.50484977       3.02494855      18.20227707  T       0.78377295      -0.52710454      -0.38993168
O        4.70763946       3.90963986      20.65483457  T      -0.22929020      -0.18822262      -1.39513878
O        7.07445352       2.75288908      20.36407342  T       0.07642097      -0.05054405      -0.13793452
O        6.52167722       0.51394635      21.51117296  T       0.61529088       0.30546195       0.02389834
O        6.58564647       5.21439329      19.38752421  T      -0.38190306      -0.35926394       0.37639933
O        7.94910474       9.85465481      16.73814970  T       0.40197472       0.41305995      -0.53037812
O        3.81489926       6.92748277      16.83605650  T      -0.55416916      -0.61449768       0.29836066
O        3.83440305       9.37752354      21.33749863  T       0.26536652       0.07410923      -0.40664611
O        3.24807426       8.01732041      19.13716128  T      -0.59572566       0.04419024       0.27701075
O        1.28190230       6.60693357      17.81519578  T      -0.75342354      -0.58815307       0.66319519
O        3.22536873       5.28692479      18.95015867  T       0.29669806       0.17118798       0.80736835
O        0.16386414       5.63013604      20.01435300  T       0.16038030       1.02582210       0.70284460
O        1.53707742       7.73614460      21.19667753  T       0.39881496      -0.63760028       0.39868110
O        4.64909858       8.33732666      22.02749875  T       0.12991709       0.01057769       0.58179829
O        8.05985910       0.21866127      19.34701213  T      -0.28232137       0.31862348      -0.13727058
O        6.83562808       8.75424138      23.66337175  T      -0.86312476      -0.50483009      -0.57831982
O        6.17254102       5.79991800      16.93875280  T      -0.10681259      -0.44687246       0.76457018
O        5.71565841       0.21002577      18.20746275  T       0.04712007       0.04212134      -0.36465384
O        8.66105775       6.08993544      17.91208611  T      -0.38135087       0.35115095      -0.29107633
O        6.91340132       7.88869985      18.41985090  T      -0.52535834       0.56251715       0.35200855
O        2.02458694       4.54502401       3.84164535  T      -0.65273147      -1.80615272      -0.57843824
O        1.59324353       2.47363002       2.02843661  T       1.01652157      -0.33617814      -2.49433257
O        3.82143910       2.70555021       4.16853453  T      -0.72040294       0.49403719       0.17133499
O        3.78604313       4.50579935       6.08922374  T      -0.81249624      -1.11668688      -0.88643714
O        1.61377772       2.97967645       5.80353330  T      -0.16537460       0.31974217       0.18619947
O        4.94357126       1.34820035       5.85896478  T       0.36999938       0.36550600      -0.39992639
O        5.25461317       0.94354146       3.15822403  T       1.08331369       0.38476132       0.01969037
O        6.18989235       3.55177805       3.98710745  T      -0.05646485      -0.56927374      -1.12711213
O        7.18491712       1.61280646       4.86834433  T       1.06159084       0.56626109       0.41826536
O        9.08283228       2.32434416       6.45862015  T       0.68022392       0.96151438       1.68121093
O        9.66446091       0.64476767       4.57463714  T       0.18393105       0.51613997      -0.80078877
O        1.04091430       9.71363553       2.50601163  T       0.41991860       0.24221374       0.41757360
O        1.12055184       8.06081297       4.67639060  T      -0.87129693      -0.09184427       0.11906456
O        9.87000000       6.98000000       2.02000000  F       0.00000000       0.00000000       0.00000000
O        5.36164391       6.02701554       4.62648577  T       0.26642944       0.04499443       0.06237318
O        5.59000000       5.63000000       2.17000000  F       0.00000000       0.00000000       0.00000000
O        7.74446355       5.81240169       3.56505111  T       0.56245517      -0.14598901      -0.44190598
O        5.55024792       8.21590587       2.57236237  T      -0.59909430       0.01079983       1.56755845
O        8.67223311       8.45099244       3.56668650  T       0.23378139       0.30880892      -0.13291468
O        3.47778748       4.12266524      11.56546533  T      -0.37753466      -0.21763150       0.19791545
O        1.09561119       4.85168929      11.42205547  T      -0.37456853      -0.16833666       0.19069329
O        1.75952347       0.82627926      10.27552886  T      -0.20246922      -1.04416417       0.07927747
O        2.66000968       3.19906102       9.23876243  T      -0.79233751       0.79502487      -0.52533732
O        3.63531407       1.09535378       8.28883662  T      -0.11918025       0.87325279       0.49862148
O        0.93170396       1.58855671       8.00471316  T       0.22883523      -0.55357422       0.70282701
O        0.46158951       4.17029255       7.81472449  T       0.10050764       0.25128510      -0.06352243
O        9.24012335       1.27471652      11.23039390  T      -0.63017571      -0.61858143      -0.73620622
O        6.03661900       2.54432733       7.87195975  T       0.19255745       0.02860259       0.71303350
O        5.26027151       4.07822593       9.84025218  T      -0.53342727      -0.11619032       0.12655766
O        7.45696046       2.48142492       9.99697583  T       0.29523603       0.17329423      -0.13042971
O        6.63596356       0.25017334      11.31686714  T      -1.21030849       0.54942659       0.58476963
O        7.45846901       4.77947168       8.73571864  T       0.18138063      -0.77150146      -0.04299340
O        8.04070142       9.84815462       6.65021492  T       0.57291640      -0.16122532      -0.19556341
O        4.08222069       7.07290138       6.83786581  T       0.79059077      -0.68860047      -0.56259160
O        4.09342759       9.63232703      11.09495621  T      -0.13816751      -0.10457237      -0.77939431
O        3.00273253       8.28021640       8.89347621  T      -0.61785623      -0.15527977       0.10412287
O        1.54404140       6.57785863       7.14415778  T       0.03948612      -0.34014642      -0.84507398
O        3.21804280       5.67096230       9.13429032  T      -0.94320308      -0.11908807       0.32982139
O        0.21330004       6.25436652       9.54297126  T       1.32620775      -0.71545734       0.58674679
O        2.29109171       7.34775229      11.18393562  T      -1.15435582      -0.77448079       0.26650951
O        4.89199942       7.27111883      10.39766367  T      -1.14534133      -0.57035536      -0.33288505
O        8.31913931      -0.05782503       9.22028296  T      -0.17459572      -1.35320557      -0.20317693
O        7.52656071       7.15255764      11.31690344  T       0.28997821      -0.13078037       0.27878317
O        6.24321581       5.56970531       6.82545674  T       0.14359667       0.52800258      -0.17002027
O        5.85973194       9.85991457       7.96613206  T      -0.12017686       0.14432697       0.22785541
O        8.93810332       6.18971377       7.11416392  T      -0.58715837       1.08139065      -0.60722052
O        7.14012486       7.66046319       8.22748192  T      -0.27011113       0.35636853       0.40382835
O        3.55000000       4.18000000       1.53000000  F       0.00000000       0.00000000       0.00000000
O        1.14000000       4.89000000       1.35000000  F       0.00000000       0.00000000       0.00000000
O        9.29000000       1.31000000       1.44000000  F       0.00000000       0.00000000       0.00000000
O        6.84000000       0.20000000       1.30000000  F       0.00000000       0.00000000       0.00000000
O        3.95000000       9.60000000       1.25000000  F       0.00000000       0.00000000       0.00000000
O        2.28000000       7.42000000       1.08000000  F       0.00000000       0.00000000       0.00000000
O        7.52000000       7.21000000       1.37000000  F       0.00000000       0.00000000       0.00000000
Si       2.04527296       3.98525361      12.38640095  T      -0.85085617      -0.24780978      -0.31861258
Si       2.89570812       3.65866870      14.99624183  T      -0.25322177      -0.26134262      -0.05961855
Si       0.83342149       1.08672789      11.58342441  T       0.40890241      -0.30714592      -2.12855559
Si       8.37238064       1.00556484      15.68467714  T       0.64843939       0.00474676       1.36007784
Si       5.55468503       2.11261039      14.47903910  T      -0.77543863       0.12354206       0.71248864
Si       4.74940796       5.76625414      16.12832566  T      -0.60908093      -0.91506322       0.10130658
Si       0.04333533       9.20433514      13.83473393  T       0.60510668       0.21326381      -0.04028341
Si       6.22640348       5.16721810      13.62866664  T       0.60888849       0.48481933      -0.43146680
Si       5.32511790       9.88594094      12.19407703  T      -0.66555221       0.02308683       0.02152359
Si       8.43509235       7.01406881      12.65124192  T       1.33003879      -0.14597258       0.15926693
Si       3.15226749       4.26688269      20.22186405  T      -0.72697095      -1.05169324      -0.65023952
Si       2.10990307       1.53634261      19.06264446  T       0.45379590       0.09327930      -0.11403359
Si       0.50401463       2.75686201      16.91249948  T       0.05171223       0.87135052       1.12075012
Si       4.97168669       1.56168717      17.61792825  T      -0.02077985       0.04676869      -0.43206359
Si       5.98589264       3.72144034      19.57338613  T       1.12814431      -0.06220725      -1.36394871
Si       7.69063173       1.22969537      20.60608818  T      -0.10242313      -0.47134992       1.34631337
Si       2.56888680       8.79860621      20.44642333  T       0.08379414       0.74649952       0.35985849
Si       2.85385465       6.74440833      18.14456751  T       0.44143130       0.28647679       0.01933213
Si       1.10898991       6.13689903      21.30268118  T      -0.10114920      -0.04034379      -1.39330523
Si       0.14440269       5.57232265      18.33112346  T      -0.23354694       0.83720733      -0.57485338
Si       6.07158387       9.31860442      22.43506801  T      -0.85338617       0.21049811      -0.24820671
Si       7.06330764       6.24476177      18.19341622  T       0.10644014      -0.10810304       0.16302441
Si       7.18264185       9.47480967      18.11529618  T      -0.34337014       0.17809395       0.27897769
Si       2.10000000       3.98000000       2.32000000  F       0.00000000       0.00000000       0.00000000
Si       2.84788433       3.69494953       4.99706095  T      -0.05757249       1.16456303       0.27039063
Si       0.89000000       1.15000000       1.77000000  F       0.00000000       0.00000000       0.00000000
Si       8.43560128       1.03700274       5.63544597  T       0.52740827      -0.49019429       0.49271349
Si       5.52107191       2.01520015       4.43608981  T      -0.60116537       0.60770587       0.47647507
Si       4.81159463       5.82575014       6.14451992  T       0.06294987       0.27760676      -0.57575904
Si       0.12590089       9.22521261       3.95006948  T       2.30707120       0.13014426      -0.77981064
Si       6.21173126       5.09423948       3.62325631  T       0.55139276      -0.26510484       0.35459016
Si       5.42000000       9.77000000       2.06000000  F       0.00000000       0.00000000       0.00000000
Si       8.43146811       7.03110555       2.74855018  T      -0.54991135       0.77487189       0.16339709
Si       3.63163574       4.29093983       9.90104683  T      -0.67861799       0.15149917       0.50435065
Si       2.25331029       1.63241194       8.94710756  T       0.77128677       0.22801709      -0.51894629
Si       0.54232154       2.78630611       7.00428861  T       0.39098833      -0.72828790      -0.66462043
Si       5.11466441       1.21767231       7.48134756  T       1.24495561      -0.02758004       0.28969074
Si       6.56297338       3.46399479       9.11155229  T      -0.44863119       0.22927008       0.51515803
Si       7.85268405       0.98801296      10.46196361  T      -0.17568117       0.66855490      -0.13759431
Si       3.53731517       8.19614472      10.42640025  T       0.41734882      -0.15736474       0.82245648
Si       2.95116000       6.87748060       8.03515840  T      -0.53394085      -0.18606282      -0.13942046
Si       0.92615759       6.39234457      10.99589121  T       0.98910423      -0.14141629      -0.13393145
Si       0.30048157       5.79010137       7.96927268  T       0.23333926       0.24639688      -0.16884461
Si       5.90238516       7.05346480      11.66493677  T       0.39929099      -0.25094031       1.61419160
Si       7.43692089       6.10528325       7.77832529  T       0.95181300       0.35379597      -0.36168823
Si       7.34614427       9.29629291       8.03024973  T       0.12923371       0.07160795       0.06389206
Si       7.93000000       1.02000000       0.50000000  F       0.00000000       0.00000000       0.00000000
Si       0.91000000       6.44000000       0.98000000  F       0.00000000       0.00000000       0.00000000
Si       5.91000000       7.08000000       1.49000000  F       0.00000000       0.00000000       0.00000000
C        4.97246985       4.99830859      22.10792116  T      -0.03805158      -0.02941652     -12.70413929
F        5.79686136       6.05697691      22.11095773  T       0.12828210      -0.34820261     -21.02309131
F        5.81462978       3.94163169      22.14998943  T       1.20673263       0.11031944     -18.83059473
153
Lattice="10.0 0.0 0.0 0.0 10.0 0.0 0.0 0.0 43.74" Properties=species:S:1:pos:R:3:move_mask:L:1:momenta:R:3 etch=trj_CF2_30eV_case1 idx=0 index=0 source=trj_CF2_30eV_case1/0000/OUTCAR converged=T time_fs=44.0 pbc="T T T"
O        2.15997282       4.60301525      13.88341401  T      -0.39606550      -0.60974925      -0.08209526
O        1.41736951       2.47273649      12.25678322  T      -0.43031345       0.17709504      -0.70082086
O        3.79657454       2.59412514      14.26710303  T      -0.37023824       0.87712485      -0.27787331
O        3.73123672       4.49881237      16.14074878  T       0.51519049       0.18837182       0.30863551
O        1.72805367       2.86616803      15.88822032  T      -0.97031423      -0.44298305       0.21367652
O        5.05550530       1.72942764      16.07073479  T       0.47891501       0.08421992       0.92351634
O        5.04061677       0.98647947      13.31819232  T       0.59404470       0.15442166       0.06021345
O        6.14228388       3.60471152      14.02841389  T      -0.02153817      -0.23260056      -0.30120825
O        7.17658739       1.51041199      14.76113224  T       0.57176460       0.46615737      -0.02756443
O        8.94311823       2.36984062      16.46132266  T       0.24106740       0.69580633       0.36228959
O        9.66745912       0.46599155      14.84879346  T       0.56536809       0.15010822       0.36659611
O        0.89306203       9.79786594      12.59401690  T      -0.38801649       0.41503777      -0.18465464
O        1.08254107       8.12789155      14.71506528  T      -0.84003249      -0.39472181       0.34516947
O       10.01022167       6.86146974      12.29714620  T      -0.06813480      -0.80868584       0.05696989
O        5.35149671       6.03331872      14.66680209  T      -0.09388659      -1.10478950       0.58417638
O        5.65772853       5.47970517      12.11499958  T       0.28574517      -0.19697733       0.66433035
O        7.72929370       5.86845363      13.58038019  T       0.32954454       0.17544048      -0.58746570
O        5.59439167       8.30822052      12.79955692  T       0.05330261       1.23596511       1.24976445
O        8.62151796       8.39118332      13.57657906  T       0.07837573       0.78989537      -0.58481834
O        2.41593952       5.10100030      21.40570945  T      -0.66362721      -0.10969433      -1.05819439
O        0.24935051       6.08778807      22.62796176  T      -0.14377210      -0.80038330      -0.24508596
O        1.90882352       0.26073170      20.08655513  T       0.35135329       0.55591720      -0.10759547
O        2.39840591       2.88214389      19.96941451  T       1.70056268       0.99167060       0.60088185
O        3.47934398       1.32266260      18.16380394  T      -0.35211577       0.38210875      -0.40938074
O        0.80496172       1.61379033      18.08776396  T       0.41258783       0.02521766       0.52718354
O        0.36650493       4.11122506      17.81701709  T      -0.28277306       0.73052117       0.00396787
O        9.07433717       1.41877380      21.44213218  T      -0.02529159       0.52712568      -0.00426951
O        5.50967804       3.02169130      18.20005572  T       0.78853712      -0.53240703      -0.33244485
O        4.70513279       3.90855166      20.64461453  T      -0.60486422      -0.16475431      -1.95270457
O        7.07489735       2.75241860      20.36288696  T       0.06845050      -0.10353223      -0.25017382
O        6.52518724       0.51580435      21.51123876  T       0.52523742       0.29718519       0.00009252
O        6.58335125       5.21232374      19.38986329  T      -0.36455481      -0.31276296       0.38395777
O        7.95147560       9.85686427      16.73509065  T       0.36800114       0.30347530      -0.46103173
O        3.81142742       6.92371709      16.83793817  T      -0.57542038      -0.61148547       0.31309122
O        3.83608448       9.37810223      21.33519810  T       0.28275526       0.11444911      -0.34231678
O        3.24411488       8.01750716      19.13886106  T      -0.69359090       0.01672492       0.27583113
O        1.27728295       6.60349940      17.81908732  T      -0.74513898      -0.52729855       0.60353502
O        3.22721273       5.28822411      18.95487955  T       0.30406769       0.25336226       0.72839540
O        0.16513309       5.63651040      20.01859553  T       0.25033082       1.04915575       0.67383448
O        1.53979799       7.73237792      21.19890366  T       0.48847483      -0.58654715       0.32579302
O        4.65031935       8.33789223      22.03106633  T       0.26657574       0.17406889       0.57965601
O        8.05789966       0.22068890      19.34621912  T      -0.35584567       0.34184163      -0.12068465
O        6.83013923       8.75126642      23.65961764  T      -0.92373347      -0.46465996      -0.64307925
O        6.17176157       5.79697851      16.94344316  T      -0.14878284      -0.51051425       0.76234136
O        5.71604984       0.21042324      18.20510870  T       0.07929262       0.08763203      -0.40195099
O        8.65872545       6.09201263      17.91024902  T      -0.37727758       0.32521646      -0.30672483
O        6.91018222       7.89202462      18.42203993  T      -0.52303276       0.51747681       0.36093171
O        2.02049419       4.53393540       3.83793249  T      -0.68152120      -1.80332273      -0.62868736
O        1.59968357       2.47163719       2.01322098  T       1.08206700      -0.31160259      -2.46216552
O        3.81714537       2.70856368       4.16957795  T      -0.67634911       0.48595187       0.16761710
O        3.78109353       4.49928660       6.08386435  T      -0.79464457      -0.99863667      -0.85571585
O        1.61298023       2.98161702       5.80462122  T      -0.09338996       0.31239309       0.16719535
O        4.94576759       1.35038372       5.85682669  T       0.34520620       0.34494798      -0.29323080
O        5.26145437       0.94586216       3.15851259  T       1.14451987       0.37105539       0.07414840
O        6.18948760       3.54828630       3.98004665  T      -0.07527409      -0.56669634      -1.17250633
O        7.19107762       1.61617201       4.87059813  T       0.94317516       0.53095027       0.31580285
O        9.08695766       2.33016442       6.46884875  T       0.65783126       0.92925709       1.64660107
O        9.66561230       0.64775972       4.56980497  T       0.19116069       0.45787189      -0.77243070
O        1.04342777       9.71538157       2.50873912  T       0.39954352       0.32690538       0.46950028
O        1.11485562       8.06075895       4.67689428  T      -0.98287462       0.07334352       0.04555381
O        9.87000000       6.98000000       2.02000000  F       0.00000000       0.00000000       0.00000000
O        5.36301114       6.02744618       4.62682071  T       0.17927643       0.09462983       0.04574748
O        5.59000000       5.63000000       2.17000000  F       0.00000000       0.00000000       0.00000000
O        7.74803612       5.81139455       3.56238954  T       0.59984291      -0.18293122      -0.42427874
O        5.54659093       8.21607078       2.58212712  T      -0.59084296       0.04129686       1.60993003
O        8.67369626       8.45281296       3.56588372  T       0.24346519       0.28467049      -0.12852357
O        3.47531142       4.12139150      11.56646151  T      -0.42839386      -0.19710362       0.12641804
O        1.09322434       4.85066830      11.42310758  T      -0.40297188      -0.16416794       0.15196127
O        1.75832976       0.81980135      10.27595454  T      -0.18362575      -1.06462234       0.05501265
O        2.65502350       3.20377005       9.23550349  T      -0.83149323       0.73799171      -0.53552371
O        3.63496073       1.10065555       8.29158327  T       0.00800663       0.85251254       0.39420126
O        0.93337337       1.58504473       8.00909745  T       0.31366322      -0.58840833       0.72270263
O        0.46214687       4.17218162       7.81453533  T       0.08099739       0.36254018       0.00085382
O        9.23649898       1.27085480      11.22607583  T      -0.54670537      -0.63899409      -0.66898741
O        6.03760947       2.54433019       7.87622529  T       0.12950331      -0.02848576       0.67514851
O        5.25669310       4.07747946       9.84088781  T      -0.63118269      -0.12694643       0.08048082
O        7.45874938       2.48245084       9.99631737  T       0.28691653       0.16130534      -0.08421187
O        6.62903352       0.25385133      11.32014381  T      -1.04342914       0.64997977       0.47950056
O        7.45975909       4.77477507       8.73571885  T       0.23923733      -0.75497887       0.04112431
O        8.04435650       9.84680291       6.64900111  T       0.61676803      -0.27995323      -0.19817775
O        4.08689821       7.06867126       6.83466034  T       0.72903784      -0.68673938      -0.47819901
O        4.09230050       9.63145850      11.09018257  T      -0.22816904      -0.17759239      -0.77389294
O        2.99887590       8.27920629       8.89391277  T      -0.63776389      -0.17413465       0.03937671
O        1.54439066       6.57569116       7.13967230  T       0.07458944      -0.36536619      -0.61589109
O        3.21218683       5.67033489       9.13609324  T      -0.96399088      -0.08467062       0.25693037
O        0.22145941       6.25018967       9.54636018  T       1.32979165      -0.64499147       0.51274536
O        2.28394228       7.34306813      11.18543904  T      -1.16908050      -0.74761959       0.22261117
O        4.88519957       7.26758762      10.39573853  T      -1.06456429      -0.58161353      -0.28942140
O        8.31759104      -0.06605209       9.21914564  T      -0.32946636      -1.32388017      -0.16437860
O        7.52814025       7.15185434      11.31850878  T       0.22308472      -0.09812202       0.24434887
O        6.24407289       5.57294635       6.82450709  T       0.13571860       0.52717149      -0.13906357
O        5.85864648       9.86089506       7.96764842  T      -0.23192054       0.17401595       0.26592166
O        8.93460085       6.19633630       7.11065592  T      -0.54963302       1.07503461      -0.53451768
O        7.13856103       7.66272387       8.22994398  T      -0.23924514       0.37801163       0.39770112
O        3.55000000       4.18000000       1.53000000  F       0.00000000       0.00000000       0.00000000
O        1.14000000       4.89000000       1.35000000  F       0.00000000       0.00000000       0.00000000
O        9.29000000       1.31000000       1.44000000  F       0.00000000       0.00000000       0.00000000
O        6.84000000       0.20000000       1.30000000  F       0.00000000       0.00000000       0.00000000
O        3.95000000       9.60000000       1.25000000  F       0.00000000       0.00000000       0.00000000
O        2.28000000       7.42000000       1.08000000  F       0.00000000       0.00000000       0.00000000
O        7.52000000       7.21000000       1.37000000  F       0.00000000       0.00000000       0.00000000
Si       2.04242404       3.98419484      12.38503609  T      -0.77834141      -0.35750450      -0.46137316
Si       2.89476348       3.65760028      14.99628666  T      -0.28890938      -0.34812928       0.08735620
Si       0.83478392       1.08584233      11.57606486  T       0.36711150      -0.19903381      -2.07606601
Si       8.37466802       1.00583532      15.68935155  T       0.66003724       0.15275310       1.30882535
Si       5.55180578       2.11285980      14.48158755  T      -0.86939253       0.01932673       0.74391627
Si       4.74730034       5.76318081      16.12877267  T      -0.59352217      -0.84082966       0.15595540
Si       0.04543129       9.20497843      13.83491996  T       0.59289720       0.15541082       0.14698287
Si       6.22858280       5.16879335      13.62708286  T       0.63792898       0.41257355      -0.47089999
Si       5.32277597       9.88579298      12.19420351  T      -0.67462747      -0.10617840       0.05166752
Si       8.43987060       7.01366680      12.65204368  T       1.40115791      -0.08209003       0.29869750
Si       3.14951657       4.26334963      20.21945096  T      -0.84867641      -0.96074251      -0.73053172
Si       2.11163094       1.53654444      19.06220221  T       0.53497987       0.02465292      -0.13737529
Si       0.50392456       2.75976776      16.91658193  T      -0.10465734       0.78928709       1.21351108
Si       4.97159383       1.56176562      17.61655121  T      -0.03250158      -0.00363364      -0.35146202
Si       5.99009440       3.72106051      19.56865862  T       1.27843692      -0.15902762      -1.34274756
Si       7.69036935       1.22811932      20.61068436  T      -0.04532365      -0.42855484       1.27926108
Si       2.56907568       8.80111421      20.44750482  T       0.02326617       0.68621393       0.25958799
Si       2.85562811       6.74534118      18.14480208  T       0.56832998       0.24581058       0.11625484
Si       1.10861958       6.13669972      21.29759271  T      -0.11135498      -0.07283512      -1.51192389
Si       0.14336469       5.57544210      18.32946413  T      -0.36258058       0.94571419      -0.37064612
Si       6.06852863       9.31892735      22.43443756  T      -0.89354316      -0.02426620      -0.11398872
Si       7.06382142       6.24454995      18.19396603  T       0.18590801      -0.01143349       0.15218905
Si       7.18141377       9.47554780      18.11643501  T      -0.35686179       0.24549335       0.37007616
Si       2.10000000       3.98000000       2.32000000  F       0.00000000       0.00000000       0.00000000
Si       2.84774997       3.69884141       4.99815994  T      -0.02265794       1.05702912       0.35603831
Si       0.89000000       1.15000000       1.77000000  F       0.00000000       0.00000000       0.00000000
Si       8.43752277       1.03559060       5.63724961  T       0.57436658      -0.31444321       0.53838651
Si       5.51893966       2.01732001       4.43769934  T      -0.61680054       0.60431812       0.44180213
Si       4.81184792       5.82648415       6.14227072  T       0.08243061       0.13773924      -0.71039273
Si       0.13410873       9.22531605       3.94726148  T       2.38257080      -0.06935981      -0.82456459
Si       6.21371773       5.09348268       3.62448904  T       0.58477446      -0.16767722       0.34882433
Si       5.42000000       9.77000000       2.06000000  F       0.00000000       0.00000000       0.00000000
Si       8.42954326       7.03400868       2.74916294  T      -0.54868043       0.88543087       0.18652605
Si       3.62946104       4.29136368       9.90313166  T      -0.56616650       0.09064903       0.68701218
Si       2.25614996       1.63326429       8.94536343  T       0.84982622       0.25966824      -0.47506022
Si       0.54354659       2.78379663       7.00180759  T       0.31260825      -0.70478137      -0.74843728
Si       5.11880915       1.21773516       7.48232709  T       1.12292737       0.06499516       0.26932341
Si       6.56131397       3.46492530       9.11325960  T      -0.49987396       0.30267580       0.46194315
Si       7.85209466       0.99012502      10.46146517  T      -0.16426216       0.53586143      -0.14820783
Si       3.53872879       8.19565835      10.42947609  T       0.38607411      -0.12178339       0.93392390
Si       2.94921327       6.87686728       8.03447010  T      -0.57801836      -0.16473792      -0.25468523
Si       0.92972443       6.39192956      10.99572233  T       1.04829821      -0.09792265       0.03938012
Si       0.30128036       5.79092945       7.96840811  T       0.22240483       0.22676496      -0.32529017
Si       5.90367727       7.05268944      11.67058835  T       0.33773018      -0.18998408       1.61452818
Si       7.44026842       6.10651743       7.77701853  T       0.95906165       0.35107380      -0.38349178
Si       7.34686341       9.29642958       8.03050833  T       0.28099485       0.00608725       0.08261005
Si       7.93000000       1.02000000       0.50000000  F       0.00000000       0.00000000       0.00000000
Si       0.91000000       6.44000000       0.98000000  F       0.00000000       0.00000000       0.00000000
Si       5.91000000       7.08000000       1.49000000  F       0.00000000       0.00000000       0.00000000
C        4.97292919       4.99786273      22.00468086  T       0.15094977      -0.08132173     -12.53830192
F        5.79740990       6.05508840      22.00209933  T       0.08359931      -0.38005053     -21.08863935
F        5.82164388       3.94240071      22.05417660  T       1.52616741       0.18787107     -18.20802678
153
Lattice="10.0 0.0 0.0 0.0 10.0 0.0 0.0 0.0 43.74" Properties=species:S:1:pos:R:3:move_mask:L:1:momenta:R:3 etch=trj_CF2_30eV_case1 idx=0 index=0 source=trj_CF2_30eV_case1/0000/OUTCAR converged=T time_fs=45.0 pbc="T T T"
O        2.15746352       4.59927535      13.88293313  T      -0.42132045      -0.60827488      -0.07397097
O        1.41464560       2.47366625      12.25260458  T      -0.45731390       0.12447711      -0.66082787
O        3.79450426       2.59968252      14.26529200  T      -0.30175866       0.93023811      -0.31211825
O        3.73442906       4.49992752      16.14256379  T       0.52128468       0.17104815       0.28170350
O        1.72204935       2.86356462      15.88938245  T      -0.98257344      -0.40372156       0.16361305
O        5.05863236       1.72995335      16.07592110  T       0.53935729       0.08763970       0.76049478
O        5.04456879       0.98721895      13.31847150  T       0.69200975       0.08692623       0.03158722
O        6.14220815       3.60346281      14.02648136  T      -0.00310667      -0.17321459      -0.32836777
O        7.17986445       1.51318232      14.76082323  T       0.49578048       0.43603340      -0.07181383
O        8.94501647       2.37412091      16.46351280  T       0.37642696       0.69757083       0.35131157
O        9.67104058       0.46661408      14.85078933  T       0.60049839       0.05319886       0.28443936
O        0.89072189       9.80046090      12.59277521  T      -0.37407411       0.43026719      -0.21987445
O        1.07713359       8.12571601      14.71698988  T      -0.92105938      -0.31406155       0.28186291
O       10.00981592       6.85645584      12.29703967  T      -0.06273278      -0.82429878      -0.09147080
O        5.35062102       6.02668985      14.67032937  T      -0.19021539      -1.05367599       0.56321074
O        5.65951035       5.47883860      12.11928849  T       0.29332412      -0.08434085       0.73018900
O        7.73145520       5.86940622      13.57686605  T       0.37360526       0.13400932      -0.55578819
O        5.59473515       8.31567735      12.80683366  T       0.05852064       1.18945772       1.11903449
O        8.62205789       8.39616947      13.57290926  T       0.09732216       0.83315162      -0.61079530
O        2.41173188       5.10044505      21.39925346  T      -0.70537934      -0.07228090      -1.04339151
O        0.24822297       6.08280024      22.62686740  T      -0.22200249      -0.82433866      -0.11339593
O        1.91100233       0.26397118      20.08582509  T       0.35832429       0.49855730      -0.12927813
O        2.40863141       2.88793585      19.97296543  T       1.62519296       0.88376708       0.55229683
O        3.47678304       1.32506461      18.16144849  T      -0.48020849       0.40049193      -0.35824182
O        0.80776442       1.61400001      18.09105567  T       0.49920392       0.04428017       0.54474587
O        0.36486830       4.11550846      17.81684086  T      -0.25025572       0.66413053      -0.06063196
O        9.07429550       1.42204217      21.44213520  T       0.01188254       0.53752612       0.00538756
O        5.51452656       3.01842548      18.19820590  T       0.79030137      -0.53023274      -0.26932017
O        4.70002736       3.90763648      20.63067365  T      -1.07642688      -0.13111696      -2.60550662
O        7.07529958       2.75160700      20.36098366  T       0.06343243      -0.16221893      -0.37171863
O        6.52809764       0.51756782      21.51120105  T       0.42008125       0.27450572      -0.00970164
O        6.58118246       5.21057264      19.39222122  T      -0.34072050      -0.25595115       0.38228674
O        7.95360124       9.85835155      16.73253696  T       0.32246879       0.17846593      -0.36655152
O        3.80784818       6.91998181      16.83988540  T      -0.58907789      -0.60454029       0.31969682
O        3.83787765       9.37892901      21.33329841  T       0.30150643       0.15485303      -0.27635095
O        3.23956351       8.01752726      19.14053946  T      -0.78835992      -0.00996418       0.27007881
O        1.27281550       6.60049131      17.82259760  T      -0.70416014      -0.44953191       0.53915548
O        3.22910327       5.29004758      18.95908325  T       0.31183485       0.34165410       0.63921231
O        0.16690889       5.64300287      20.02257249  T       0.32512308       1.06421293       0.61638052
O        1.54308413       7.72896889      21.20067212  T       0.58263845      -0.52166054       0.24985448
O        4.65235846       8.33946579      22.03460931  T       0.39621639       0.33844614       0.57380060
O        8.05549167       0.22285787      19.34553371  T      -0.42830137       0.36457632      -0.10228340
O        6.82429994       8.74852999      23.65549493  T      -0.97677881      -0.42749667      -0.69760544
O        6.17069889       5.79365168      16.94810487  T      -0.19866834      -0.57292312       0.75550874
O        5.71661991       0.21110425      18.20252992  T       0.10514652       0.13439945      -0.43779815
O        8.65643641       6.09392610      17.90832628  T      -0.36731253       0.29787142      -0.31900057
O        6.90698151       7.89502488      18.42428128  T      -0.51936182       0.45727687       0.36904827
O        2.01620899       4.52290738       3.83395242  T      -0.71523656      -1.78662395      -0.66497239
O        1.60653621       2.46981539       1.99820360  T       1.15064453      -0.28100016      -2.42986389
O        3.81315374       2.71150045       4.17058339  T      -0.62207956       0.46910580       0.15904086
O        3.77633769       4.49359817       6.07875426  T      -0.74966522      -0.84871413      -0.80523895
O        1.61263957       2.98351171       5.80557743  T      -0.01693118       0.30470136       0.14357441
O        4.94780757       1.35242900       5.85539411  T       0.31910015       0.32074102      -0.17094750
O        5.26865898       0.94809523       3.15913174  T       1.20160584       0.35606373       0.12716661
O        6.18896928       3.54483587       3.97271494  T      -0.09344619      -0.55560013      -1.21536962
O        7.19648113       1.61933387       4.87222299  T       0.81570914       0.49969781       0.21379741
O        9.09085066       2.33570396       6.47879725  T       0.60461321       0.87060526       1.59025720
O        9.66680819       0.65038299       4.56516130  T       0.19838531       0.39598934      -0.73941067
O        1.04582791       9.71765251       2.51176138  T       0.38310386       0.41309234       0.51345108
O        1.10849896       8.06170222       4.67695675  T      -1.08612421       0.23261322      -0.02441733
O        9.87000000       6.98000000       2.02000000  F       0.00000000       0.00000000       0.00000000
O        5.36384979       6.02817036       4.62703595  T       0.09447594       0.14054353       0.02310258
O        5.59000000       5.63000000       2.17000000  F       0.00000000       0.00000000       0.00000000
O        7.75181407       5.81014786       3.55984939  T       0.62940778      -0.22382039      -0.40246034
O        5.54300666       8.21639635       2.59209562  T      -0.57541558       0.06315479       1.63391589
O        8.67522826       8.45449267       3.56510898  T       0.25606943       0.26299336      -0.12380257
O        3.47253477       4.12024662      11.56701730  T      -0.47529632      -0.17572463       0.05474904
O        1.09066388       4.84967312      11.42392153  T      -0.43093813      -0.16017563       0.11328297
O        1.75729655       0.81322104      10.27616096  T      -0.15028839      -1.07757005       0.00816124
O        2.64980604       3.20811539       9.23219565  T      -0.86733053       0.67702910      -0.54102716
O        3.63544833       1.10580945       8.29365981  T       0.15389055       0.82530035       0.28079421
O        0.93554038       1.58135402       8.01355791  T       0.39064150      -0.61156174       0.72726879
O        0.46258385       4.17472353       7.81472214  T       0.06135873       0.46302555       0.05854971
O        9.23344586       1.26687443      11.22219251  T      -0.44472155      -0.65721812      -0.59490356
O        6.03820465       2.54397186       7.88023780  T       0.06408927      -0.08852794       0.63092096
O        5.25253472       4.07666705       9.84124007  T      -0.72186347      -0.13774762       0.03422345
O        7.46047677       2.48341044       9.99593930  T       0.27507209       0.15182777      -0.03927684
O        6.62318316       0.25816462      11.32272754  T      -0.85989249       0.75578395       0.35994194
O        7.46140975       4.77023648       8.73620348  T       0.29871332      -0.72008818       0.11476716
O        8.04826555       9.84471076       6.64779663  T       0.65580997      -0.40193995      -0.19290613
O        4.09113371       7.06449399       6.83202559  T       0.64721911      -0.67178873      -0.37733341
O        4.09063599       9.63015595      11.08547277  T      -0.31290128      -0.24561139      -0.75834369
O        2.99490922       8.27807507       8.89397518  T      -0.65357158      -0.19460955      -0.01733210
O        1.54495931       6.57337812       7.13659436  T       0.11074274      -0.38752861      -0.38713089
O        3.20621113       5.66992597       9.13744165  T      -0.98201062      -0.04850477       0.18218858
O        0.22960959       6.24644847       9.54922401  T       1.32341104      -0.57353847       0.41620820
O        2.27679405       7.33861146      11.18666412  T      -1.15378823      -0.70029201       0.17612205
O        4.87897705       7.26396129      10.39415652  T      -0.95799026      -0.60109626      -0.22163559
O        8.31509911      -0.07405176       9.21829402  T      -0.48154881      -1.27925365      -0.11021844
O        7.52928688       7.15135465      11.31990812  T       0.14936157      -0.06448990       0.21214317
O        6.24488341       5.57617204       6.82375140  T       0.12841124       0.52296443      -0.10693817
O        5.85690378       9.86203883       7.96939549  T      -0.33345969       0.19720029       0.30301494
O        8.93139511       6.20290547       7.10760905  T      -0.49085158       1.06409646      -0.45735684
O        7.13718793       7.66508286       8.23236015  T      -0.20796919       0.38820596       0.38887280
O        3.55000000       4.18000000       1.53000000  F       0.00000000       0.00000000       0.00000000
O        1.14000000       4.89000000       1.35000000  F       0.00000000       0.00000000       0.00000000
O        9.29000000       1.31000000       1.44000000  F       0.00000000       0.00000000       0.00000000
O        6.84000000       0.20000000       1.30000000  F       0.00000000       0.00000000       0.00000000
O        3.95000000       9.60000000       1.25000000  F       0.00000000       0.00000000       0.00000000
O        2.28000000       7.42000000       1.08000000  F       0.00000000       0.00000000       0.00000000
O        7.52000000       7.21000000       1.37000000  F       0.00000000       0.00000000       0.00000000
Si       2.03982695       3.98275448      12.38317780  T      -0.70722035      -0.46573427      -0.60032899
Si       2.89367548       3.65624339      14.99686396  T      -0.33530741      -0.42592340       0.24445205
Si       0.83597222       1.08533577      11.56892448  T       0.30960427      -0.09081394      -2.00339158
Si       8.37700015       1.00664802      15.69380871  T       0.67396857       0.31415202       1.23599384
Si       5.54861379       2.11274836      14.48423621  T      -0.95407669      -0.08234593       0.76935209
Si       4.74527111       5.76038152      16.12942541  T      -0.56441982      -0.75840457       0.21870813
Si       0.04748030       9.20542756      13.83576123  T       0.57854506       0.10243202       0.33347409
Si       6.23086900       5.17008584      13.62539301  T       0.66990955       0.32368930      -0.49176873
Si       5.32039474       9.88520759      12.19444146  T      -0.68748429      -0.22686840       0.08456544
Si       8.44488530       7.01350489      12.65332654  T       1.46484567      -0.00880098       0.43377900
Si       3.14631216       4.26021077      20.21674776  T      -0.98763049      -0.82551352      -0.81652060
Si       2.11364815       1.53652934      19.06169262  T       0.61882641      -0.03092674      -0.15239615
Si       0.50327680       2.76237780      16.92098592  T      -0.26626783       0.70241467       1.30440459
Si       4.97145743       1.56165261      17.61549125  T      -0.04596829      -0.06236106      -0.25127348
Si       5.99485841       3.72030498      19.56397269  T       1.44980520      -0.27682160      -1.34062629
Si       7.69032793       1.22670443      20.61502182  T       0.02382205      -0.37950696       1.19872806
Si       2.56904532       8.80339866      20.44824563  T      -0.04112239       0.61898218       0.16524431
Si       2.85780353       6.74612111      18.14538842  T       0.67095506       0.19904855       0.22023445
Si       1.10820641       6.13639541      21.29213500  T      -0.12570019      -0.09997004      -1.60342005
Si       0.14185333       5.57893061      18.32854784  T      -0.50358773       1.04756511      -0.15086926
Si       6.06533451       9.31844698      22.43425784  T      -0.93282130      -0.24779763       0.00851758
Si       7.06459840       6.24468999      18.19448494  T       0.25653371       0.09272125       0.14516707
Si       7.18015738       9.47653452      18.11787245  T      -0.35960382       0.31985098       0.44984013
Si       2.10000000       3.98000000       2.32000000  F       0.00000000       0.00000000       0.00000000
Si       2.84770580       3.70232130       4.99953797  T      -0.00604554       0.92928053       0.42940102
Si       0.89000000       1.15000000       1.77000000  F       0.00000000       0.00000000       0.00000000
Si       8.43963433       1.03481730       5.63920904  T       0.63537252      -0.12581753       0.58139469
Si       5.51676472       2.01942609       4.43916870  T      -0.62574439       0.59978064       0.39662793
Si       4.81217415       5.82669086       6.13955279  T       0.10455730      -0.02292761      -0.84313173
Si       0.14254323       9.22473883       3.94430994  T       2.43640789      -0.25844966      -0.86175617
Si       6.21582292       5.09306590       3.62568791  T       0.61923009      -0.07087635       0.33534964
Si       5.42000000       9.77000000       2.06000000  F       0.00000000       0.00000000       0.00000000
Si       8.42764217       7.03729923       2.74985223  T      -0.53642126       0.99608494       0.20719329
Si       3.62766617       4.29157374       9.90584488  T      -0.46217209       0.02963610       0.86274016
Si       2.25923985       1.63422916       8.94380327  T       0.91471341       0.29208819      -0.41405064
Si       0.54452768       2.78138795       6.99908791  T       0.25198649      -0.67052081      -0.80064556
Si       5.12250730       1.21813426       7.48322561  T       0.98996354       0.16423983       0.24360199
Si       6.55947958       3.46610984       9.11478853  T      -0.54854305       0.37411235       0.41324849
Si       7.85151925       0.99174398      10.46092242  T      -0.16726364       0.38733391      -0.16291422
Si       3.53998719       8.19528601      10.43291624  T       0.32871050      -0.09247225       1.03005555
Si       2.94712429       6.87632770       8.03337547  T      -0.61522903      -0.14391764      -0.37124027
Si       0.93347601       6.39164695      10.99617517  T       1.09432159      -0.06599621       0.22044374
Si       0.30203188       5.79168655       7.96700097  T       0.20652267       0.20618588      -0.47837429
Si       5.90473836       7.05214941      11.67621277  T       0.26773502      -0.11664107       1.59878448
Si       7.44360987       6.10773418       7.77565523  T       0.94837511       0.34394940      -0.39391412
Si       7.34810071       9.29633383       8.03081909  T       0.42443999      -0.06095819       0.09356366
Si       7.93000000       1.02000000       0.50000000  F       0.00000000       0.00000000       0.00000000
Si       0.91000000       6.44000000       0.98000000  F       0.00000000       0.00000000       0.00000000
Si       5.91000000       7.08000000       1.49000000  F       0.00000000       0.00000000       0.00000000
C        4.97493745       4.99695242      21.90291543  T       0.33944302      -0.14341237     -12.34380781
F        5.79772282       6.05306895      21.89286964  T       0.03706144      -0.39828531     -21.16653725
F        5.83059375       3.94358085      21.96192140  T       1.95828013       0.26948364     -17.45416512
153
Lattice="10.0 0.0 0.0 0.0 10.0 0.0 0.0 0.0 43.74" Properties=species:S:1:pos:R:3:move_mask:L:1:momenta:R:3 etch=trj_CF2_30eV_case1 idx=0 index=0 source=trj_CF2_30eV_case1/0000/OUTCAR converged=T time_fs=46.0 pbc="T T T"
O        2.15480029       4.59554751      13.88251056  T      -0.44609850      -0.60609670      -0.06333071
O        1.41175201       2.47425328      12.24866469  T      -0.48539428       0.06577344      -0.62298862
O        3.79289346       2.60551686      14.26326988  T      -0.22066702       0.96732337      -0.34667675
O        3.73760295       4.50087381      16.14419937  T       0.50932034       0.13349085       0.25035183
O        1.71601732       2.86122334      15.89021825  T      -0.97984349      -0.35786628       0.10777244
O        5.06212297       1.73050892      16.08002436  T       0.59710282       0.09373143       0.57217678
O        5.04909978       0.98755219      13.31858947  T       0.78253967       0.02221131       0.00779068
O        6.14224550       3.60259104      14.02438227  T       0.01520511      -0.11047051      -0.35529499
O        7.18267739       1.51576312      14.76026440  T       0.42095867       0.40435999      -0.10879363
O        8.94772847       2.37839521      16.46563692  T       0.50555428       0.69361514       0.34057009
O        9.67482223       0.46665264      14.85229777  T       0.63017467      -0.03962958       0.20833537
O        0.88847007       9.80314774      12.59131886  T      -0.35942747       0.44470522      -0.25413936
O        1.07123682       8.12403292      14.71852820  T      -0.99918330      -0.23456704       0.21954593
O       10.00946315       6.85135230      12.29602754  T      -0.05119869      -0.83770347      -0.23755444
O        5.34917417       6.02038905      14.67370002  T      -0.27970453      -0.99809766       0.53297551
O        5.66131572       5.47867827      12.12393822  T       0.29331593       0.03284585       0.78175863
O        7.73387157       5.87009082      13.57357069  T       0.41263248       0.08824888      -0.51625363
O        5.59510939       8.32279001      12.81328295  T       0.06329522       1.12418723       0.98061118
O        8.62271082       8.40140089      13.56907778  T       0.11514292       0.86974133      -0.63741704
O        2.40729509       5.10010124      21.39291235  T      -0.73828484      -0.04084889      -1.02084404
O        0.24664194       6.07766727      22.62654585  T      -0.29117680      -0.84758438       0.00607433
O        1.91322250       0.26684564      20.08497732  T       0.36480517       0.43706850      -0.14595316
O        2.41830763       2.89288135      19.97616129  T       1.52162787       0.71636059       0.48554595
O        3.47347195       1.32758117      18.15939899  T      -0.59554035       0.41932445      -0.31025764
O        0.81107794       1.61434567      18.09444858  T       0.57874822       0.06939370       0.56001232
O        0.36343216       4.11937812      17.81628262  T      -0.21765643       0.59675438      -0.12000638
O        9.07448439       1.42537372      21.44219951  T       0.04975375       0.54769853       0.01566232
O        5.51937590       3.01519044      18.19675312  T       0.78875845      -0.52290102      -0.20390482
O        4.69173582       3.90696674      20.61246536  T      -1.64083415      -0.08457153      -3.33906129
O        7.07568887       2.75040871      20.35830188  T       0.06503817      -0.23031196      -0.50403436
O        6.53031849       0.51914662      21.51114693  T       0.30089455       0.23705038      -0.00530630
O        6.57918032       5.20919595      19.39453646  T      -0.31017401      -0.19130704       0.36962307
O        7.95541748       9.85903377      16.73062863  T       0.26770167       0.04207500      -0.25182720
O        3.80420925       6.91630184      16.84184811  T      -0.59482575      -0.59343892       0.31815353
O        3.83978672       9.38000306      21.33180503  T       0.32025752       0.19492650      -0.21023671
O        3.23444258       8.01738768      19.14216910  T      -0.87892145      -0.03515178       0.26000895
O        1.26869541       6.59800940      17.82570037  T      -0.63252981      -0.35623419       0.47097095
O        3.23104160       5.29242836      18.96271145  T       0.31947830       0.43465935       0.54111481
O        0.16909268       5.64956138      20.02611063  T       0.38291907       1.07060886       0.53106283
O        1.54695643       7.72599270      21.20196860  T       0.67895483      -0.44620005       0.17232836
O        4.65516799       8.34204464      22.03810496  T       0.51721630       0.50102859       0.56421590
O        8.05264403       0.22516367      19.34496610  T      -0.49891107       0.38632084      -0.08234881
O        6.81816484       8.74600756      23.65107930  T      -1.01960697      -0.39531806      -0.73772743
O        6.16931127       5.78994727      16.95271401  T      -0.25419369      -0.63336871       0.74546999
O        5.71732745       0.21207484      18.19973633  T       0.12397825       0.18183009      -0.47186441
O        8.65422587       6.09566816      17.90633806  T      -0.35177251       0.26944866      -0.32810762
O        6.90380757       7.89761580      18.42656993  T      -0.51429961       0.38469390       0.37633922
O        2.01170422       4.51202158       3.82979904  T      -0.75284823      -1.75722118      -0.68468035
O        1.61381527       2.46819261       1.98338350  T       1.22066936      -0.24734666      -2.39800444
O        3.80952526       2.71430781       4.17152243  T      -0.55818266       0.44388852       0.14609226
O        3.77193665       4.48891984       6.07401368  T      -0.67951447      -0.67031019      -0.73553458
O        1.61277699       2.98535674       5.80637837  T       0.06194640       0.29609837       0.11692790
O        4.94968377       1.35431754       5.85474832  T       0.29190334       0.29414198      -0.03787916
O        5.27620023       0.95023027       3.16006912  T       1.25409237       0.33896675       0.17759825
O        6.18834153       3.54148232       3.96512777  T      -0.11090563      -0.53497568      -1.25572583
O        7.20108380       1.62231339       4.87322850  T       0.68301372       0.47132450       0.11445655
O        9.09432452       2.34080991       6.48833746  T       0.52159644       0.78861885       1.51397952
O        9.66804788       0.65261523       4.56073426  T       0.20539187       0.33052266      -0.70189759
O        1.04814050       9.72045569       2.51502712  T       0.37111818       0.50016649       0.54868682
O        1.10153824       8.06359954       4.67660381  T      -1.17932190       0.38369379      -0.08950665
O        9.87000000       6.98000000       2.02000000  F       0.00000000       0.00000000       0.00000000
O        5.36417810       6.02916410       4.62709016  T       0.01325303       0.18238087      -0.00695122
O        5.59000000       5.63000000       2.17000000  F       0.00000000       0.00000000       0.00000000
O        7.75575045       5.80864094       3.55745449  T       0.65154827      -0.26745723      -0.37709761
O        5.53953885       8.21683018       2.60215498  T      -0.55294607       0.07663946       1.63955941
O        8.67684469       8.45604759       3.56436388  T       0.27081847       0.24407627      -0.11889720
O        3.46948428       4.11923463      11.56713645  T      -0.51746576      -0.15388932      -0.01552861
O        1.08793551       4.84869863      11.42450038  T      -0.45748909      -0.15767081       0.07552906
O        1.75651057       0.80658356      10.27601544  T      -0.10330939      -1.08330359      -0.05914268
O        2.64438323       3.21208059       9.22887145  T      -0.89807179       0.61460212      -0.54064428
O        3.63687665       1.11077959       8.29501900  T       0.31343934       0.79292020       0.16104616
O        0.93815241       1.57755961       8.01799504  T       0.45840610      -0.62205102       0.71484536
O        0.46290064       4.17783757       7.81523765  T       0.04189655       0.54810496       0.10759428
O        9.23106659       1.26278900      11.21878049  T      -0.32796465      -0.67321649      -0.51584415
O        6.03839516       2.54324308       7.88396367  T      -0.00198685      -0.14859833       0.58211775
O        5.24784771       4.07578723       9.84130747  T      -0.80292706      -0.14896890      -0.01233520
O        7.46211918       2.48432116       9.99583084  T       0.25914959       0.14546882       0.00345245
O        6.61849301       0.26313559      11.32454569  T      -0.66686239       0.86361064       0.23106630
O        7.46342870       4.76596703       8.73710788  T       0.35905358      -0.66748888       0.17788827
O        8.05240181       9.84186646       6.64664335  T       0.69096277      -0.52443157      -0.18193501
O        4.09481348       7.06044258       6.83005146  T       0.54873579      -0.64628363      -0.26374269
O        4.08847173       9.62845563      11.08089245  T      -0.39066453      -0.30684545      -0.73150290
O        2.99085970       8.27681486       8.89371931  T      -0.66464301      -0.21602420      -0.06396844
O        1.54575033       6.57093885       7.13491202  T       0.14681238      -0.40646114      -0.16182921
O        3.20013585       5.66973662       9.13833124  T      -0.99624364      -0.01372033       0.10790018
O        0.23769296       6.24314914       9.55143377  T       1.30828903      -0.50102748       0.30037439
O        2.26983360       7.33450893      11.18759969  T      -1.10785733      -0.63225458       0.12860087
O        4.87347776       7.26019386      10.39305805  T      -0.82982248      -0.62724256      -0.13247687
O        8.31168791      -0.08173228       9.21782050  T      -0.62849395      -1.22007127      -0.04134572
O        7.52996546       7.15106395      11.32112261  T       0.07104758      -0.03007526       0.18456723
O        6.24565053       5.57936103       6.82319507  T       0.12154942       0.51517837      -0.07424724
O        5.85457926       9.86330115       7.97136729  T      -0.42076258       0.21239821       0.33911781
O        8.92861034       6.20939459       7.10504506  T      -0.41294339       1.04904390      -0.37753632
O        7.13600826       7.66746715       8.23471381  T      -0.17621838       0.38613391       0.37734171
O        3.55000000       4.18000000       1.53000000  F       0.00000000       0.00000000       0.00000000
O        1.14000000       4.89000000       1.35000000  F       0.00000000       0.00000000       0.00000000
O        9.29000000       1.31000000       1.44000000  F       0.00000000       0.00000000       0.00000000
O        6.84000000       0.20000000       1.30000000  F       0.00000000       0.00000000       0.00000000
O        3.95000000       9.60000000       1.25000000  F       0.00000000       0.00000000       0.00000000
O        2.28000000       7.42000000       1.08000000  F       0.00000000       0.00000000       0.00000000
O        7.52000000       7.21000000       1.37000000  F       0.00000000       0.00000000       0.00000000
Si       2.03747347       3.98094028      12.38084368  T      -0.63937318      -0.57101148      -0.73299413
Si       2.89240590       3.65463269      14.99800513  T      -0.39276043      -0.49301772       0.40934087
Si       0.83693430       1.08520487      11.56207184  T       0.23812793       0.01537423      -1.91185149
Si       8.37938442       1.00804322      15.69797522  T       0.68971523       0.48504804       1.14300847
Si       5.54514323       2.11228924      14.48696018  T      -1.02852553      -0.17903466       0.78659034
Si       4.74336589       5.75788425      16.13031003  T      -0.52284008      -0.66825040       0.28831182
Si       0.04947741       9.20570148      13.83724632  T       0.56345854       0.05544081       0.51421783
Si       6.23327132       5.17104278      13.62366512  T       0.70419249       0.22129304      -0.49238116
Si       5.31796630       9.88421651      12.19479386  T      -0.70100307      -0.33797879       0.11638146
Si       8.45010666       7.01361462      12.65506987  T       1.51892409       0.07305314       0.56147656
Si       3.14258106       4.25762705      20.21373098  T      -1.15140426      -0.64294282      -0.91024150
Si       2.11595995       1.53634122      19.06114606  T       0.70297817      -0.07451811      -0.15840202
Si       0.50206194       2.76467687      16.92570294  T      -0.42793778       0.61164313       1.39230643
Si       4.97126886       1.56132277      17.61481119  T      -0.06255423      -0.12712840      -0.13500441
Si       6.00025871       3.71910291      19.55925866  T       1.64211433      -0.41401727      -1.35880750
Si       7.69054773       1.22547007      20.61905704  T       0.10366277      -0.32551471       1.10684821
Si       2.56878646       8.80543830      20.44866814  T      -0.10694748       0.54657172       0.07769602
Si       2.86029351       6.74672695      18.14634879  T       0.74807695       0.14628531       0.32985239
Si       1.10773594       6.13600866      21.28641193  T      -0.14401882      -0.11958020      -1.66284744
Si       0.13983315       5.58275884      18.32842024  T      -0.65275615       1.13942597       0.07935141
Si       6.06200449       9.31721228      22.43447872  T      -0.97124315      -0.45463753       0.11420266
Si       7.06560387       6.24520435      18.19498437  T       0.31619779       0.20218863       0.14074726
Si       7.17890956       9.47779026      18.11957007  T      -0.35210264       0.39886837       0.51903747
Si       2.10000000       3.98000000       2.32000000  F       0.00000000       0.00000000       0.00000000
Si       2.84768787       3.70532172       5.00114728  T      -0.00752259       0.78326620       0.48787534
Si       0.89000000       1.15000000       1.77000000  F       0.00000000       0.00000000       0.00000000
Si       8.44197809       1.03471914       5.64131137  T       0.70635503       0.07070164       0.61977477
Si       5.51456896       2.02151389       4.44046433  T      -0.62886144       0.59380308       0.34285058
Si       4.81258129       5.82630721       6.13637918  T       0.12849627      -0.19871381      -0.97024362
Si       0.15112613       9.22352320       3.94124240  T       2.46719179      -0.43382559      -0.89083025
Si       6.21805007       5.09298502       3.62682713  T       0.65445188       0.02421300       0.31485495
Si       5.42000000       9.77000000       2.06000000  F       0.00000000       0.00000000       0.00000000
Si       8.42580234       7.04097439       2.75060981  T      -0.51380129       1.10501261       0.22562868
Si       3.62621468       4.29157314       9.90915347  T      -0.37049306      -0.02940260       1.02654954
Si       2.26253579       1.63530666       8.94248379  T       0.96811776       0.32379088      -0.33784342
Si       0.54533108       2.77911863       6.99624365  T       0.21131600      -0.62504174      -0.81946613
Si       5.12572424       1.21888847       7.48402671  T       0.84815160       0.26754622       0.21389004
Si       6.55748059       3.46753769       9.11615554  T      -0.59385892       0.44142547       0.36937674
Si       7.85091163       0.99282157      10.46032137  T      -0.18216382       0.22706808      -0.18147227
Si       3.54100086       8.19500268      10.43666061  T       0.24644644      -0.07124676       1.10727766
Si       2.94491756       6.87585992       8.03187493  T      -0.64530023      -0.12369527      -0.48628624
Si       0.93736234       6.39145368      10.99726583  T       1.12495208      -0.04708607       0.40287307
Si       0.30272079       5.79237292       7.96506961  T       0.18680585       0.18670108      -0.62441949
Si       5.90554399       7.05188536      11.68175511  T       0.19216688      -0.03248124       1.56776781
Si       7.44688321       6.10891936       7.77427603  T       0.92026059       0.33318295      -0.39253578
Si       7.34981712       9.29600341       8.03115344  T       0.55397574      -0.12779962       0.09596000
Si       7.93000000       1.02000000       0.50000000  F       0.00000000       0.00000000       0.00000000
Si       0.91000000       6.44000000       0.98000000  F       0.00000000       0.00000000       0.00000000
Si       5.91000000       7.08000000       1.49000000  F       0.00000000       0.00000000       0.00000000
C        4.97846311       4.99548673      21.80285645  T       0.52096680      -0.21728755     -12.12061562
F        5.79778940       6.05099677      21.78320850  T      -0.01182749      -0.39993330     -21.25497816
F        5.84209110       3.94519629      21.87389460  T       2.51194593       0.35675365     -16.57502154
153
Lattice="10.0 0.0 0.0 0.0 10.0 0.0 0.0 0.0 43.74" Properties=species:S:1:pos:R:3:move_mask:L:1:momenta:R:3 etch=trj_CF2_30eV_case1 idx=0 index=0 source=trj_CF2_30eV_case1/0000/OUTCAR converged=T time_fs=47.0 pbc="T T T"
O        2.15198781       4.59183165      13.88215777  T      -0.46984216      -0.60462236      -0.05149859
O        1.40868531       2.47446567      12.24495127  T      -0.51351048       0.00278640      -0.58699757
O        3.79181717       2.61153003      14.26103427  T      -0.12787141       0.98860130      -0.38166537
O        3.74065042       4.50152988      16.14563125  T       0.48035853       0.07678832       0.21554294
O        1.71004099       2.85918004      15.89069903  T      -0.96500401      -0.30695452       0.04840584
O        5.06595660       1.73110698      16.08291474  T       0.65085469       0.10121711       0.36713048
O        5.05416247       0.98749810      13.31857716  T       0.86513825      -0.03916836      -0.01080604
O        6.14239376       3.60210600      14.02212076  T       0.03294790      -0.04788966      -0.38111865
O        7.18503954       1.51814400      14.75950257  T       0.34929869       0.37086365      -0.13784246
O        8.95120608       2.38262450      16.46769291  T       0.62521723       0.68267756       0.32889100
O        9.67876427       0.46614011      14.85336416  T       0.65240544      -0.12587919       0.14089493
O        0.88630799       9.80591720      12.58966100  T      -0.34500545       0.45690658      -0.28507165
O        1.06487254       8.12283070      14.71968978  T      -1.07310656      -0.15769334       0.15934951
O       10.00919554       6.84617570      12.29413206  T      -0.03534148      -0.84790876      -0.37876321
O        5.34720184       6.01444088      14.67685458  T      -0.36120709      -0.93897118       0.49271427
O        5.66309658       5.47924818      12.12885961  T       0.28527454       0.15329202       0.81865301
O        7.73651321       5.87048284      13.57054119  T       0.44710228       0.03884971      -0.46927952
O        5.59551126       8.32944902      12.81886393  T       0.06749849       1.04204968       0.83655631
O        8.62346926       8.40683601      13.56508183  T       0.13167446       0.89949026      -0.66429697
O        2.40268285       5.09993208      21.38673265  T      -0.76262715      -0.01534423      -0.99086430
O        0.24466775       6.07239475      22.62691323  T      -0.34985432      -0.86972746       0.11058163
O        1.91548066       0.26933061      20.08404237  T       0.37067949       0.37172693      -0.15769816
O        2.42726334       2.89662557      19.97889694  T       1.39086522       0.49356459       0.40289300
O        3.46950403       1.33021332      18.15762720  T      -0.69332360       0.43803301      -0.26831128
O        0.81485491       1.61486239      18.09792626  T       0.64993987       0.09986050       0.57221567
O        0.36219390       4.12284443      17.81538193  T      -0.18597509       0.53370658      -0.17175899
O        9.07490740       1.42876692      21.44232857  T       0.08813580       0.55760585       0.02648774
O        5.52420538       3.01200955      18.19570080  T       0.78386464      -0.51302649      -0.13908226
O        4.67973694       3.90662203      20.58956758  T      -2.27853559      -0.02563786      -4.12695280
O        7.07611986       2.74875214      20.35477168  T       0.07795554      -0.31240726      -0.64825762
O        6.53176917       0.52045136      21.51116178  T       0.16965502       0.18544128       0.01254178
O        6.57738826       5.20823270      19.39673310  T      -0.27205571      -0.12192046       0.34295487
O        7.95687609       9.85885572      16.72947226  T       0.20653894      -0.10079207      -0.12277834
O        3.80055956       6.91270310      16.84377695  T      -0.59259683      -0.57806157       0.30874986
O        3.84180747       9.38132119      21.33071433  T       0.33761520       0.23430254      -0.14545634
O        3.22878121       8.01709993      19.14372456  T      -0.96422053      -0.05809866       0.24598904
O        1.26510043       6.59614267      17.82837550  T      -0.53393108      -0.24962383       0.40007790
O        3.23302402       5.29539135      18.96571247  T       0.32602997       0.53107515       0.43514209
O        0.17157538       5.65613206      20.02904248  T       0.42227183       1.06816994       0.41919499
O        1.55142039       7.72350318      21.20278810  T       0.77489042      -0.36384316       0.09477258
O        4.65868928       8.34560901      22.04152988  T       0.62770536       0.65893091       0.55070367
O        8.04937062       0.22759873      19.34452523  T      -0.56683482       0.40659074      -0.06100297
O        6.81180450       8.74366253      23.64647151  T      -1.04970543      -0.37006915      -0.75950716
O        6.16757133       5.78587975      16.95725494  T      -0.31298825      -0.69105543       0.73353328
O        5.71812808       0.21333663      18.19673989  T       0.13543840       0.22907537      -0.50381414
O        8.65212697       6.09723343      17.90430281  T      -0.33102285       0.24036832      -0.33440564
O        6.90066911       7.89973094      18.42890090  T      -0.50780011       0.30292446       0.38284448
O        2.00695921       4.50135227       3.82558133  T      -0.79330248      -1.71632894      -0.68554728
O        1.62152452       2.46677816       1.96875632  T       1.29045849      -0.21370522      -2.36710838
O        3.80631669       2.71693612       4.17237011  T      -0.48545681       0.41091240       0.12941018
O        3.76803680       4.48541391       6.06975661  T      -0.58700774      -0.46767163      -0.64810964
O        1.61340064       2.98714458       5.80701081  T       0.14104183       0.28594818       0.08903560
O        4.95139037       1.35603890       5.85493962  T       0.26391399       0.26655059       0.10072172
O        5.28404845       0.95225184       3.16130538  T       1.30152193       0.31894653       0.22432448
O        6.18760892       3.53828647       3.95730054  T      -0.12760211      -0.50412998      -1.29356608
O        7.20486508       1.62512447       4.87363761  T       0.54881214       0.44459357       0.01990195
O        9.09720238       2.34534927       6.49735362  T       0.41099748       0.68671109       1.42000514
O        9.66932937       0.65443515       4.55655087  T       0.21195539       0.26174600      -0.66007895
O        1.05039435       9.72379462       2.51848086  T       0.36404405       0.58749662       0.57458561
O        1.09404063       8.06639329       4.67586984  T      -1.26067162       0.52415729      -0.14825601
O        9.87000000       6.98000000       2.02000000  F       0.00000000       0.00000000       0.00000000
O        5.36402156       6.03040155       4.62693409  T      -0.06326652       0.21989850      -0.04559318
O        5.59000000       5.63000000       2.17000000  F       0.00000000       0.00000000       0.00000000
O        7.75980143       5.80686114       3.55522426  T       0.66687474      -0.31243158      -0.34897303
O        5.53622995       8.21732244       2.61219332  T      -0.52370888       0.08232469       1.62713883
O        8.67855618       8.45749556       3.56364905  T       0.28686813       0.22820681      -0.11397893
O        3.46619108       4.11835708      11.56683229  T      -0.55425082      -0.13200612      -0.08285413
O        1.08505081       4.84773174      11.42485220  T      -0.48169709      -0.15793084       0.03945766
O        1.75605143       0.79993225      10.27540130  T      -0.04414328      -1.08213112      -0.14383979
O        2.63879129       3.21566368       9.22557030  T      -0.92215620       0.55294468      -0.53334234
O        3.63931234       1.11553891       8.29563073  T       0.48091546       0.75693905       0.03787642
O        0.94114962       1.57374104       8.02230085  T       0.51597249      -0.61938705       0.68433725
O        0.46309912       4.18141653       7.81602356  T       0.02285832       0.61380096       0.14636563
O        9.22943865       1.25861217      11.21586375  T      -0.20084979      -0.68699737      -0.43399997
O        6.03818242       2.54215301       7.88738057  T      -0.06693031      -0.20564261       0.53063986
O        5.24269836       4.07483639       9.84108780  T      -0.87207092      -0.16093854      -0.05930855
O        7.46365042       2.48520336       9.99597600  T       0.23881636       0.14258172       0.04321833
O        6.61499864       0.26876657      11.32555693  T      -0.47175834       0.97016883       0.09806784
O        7.46581858       4.76207193       8.73836810  T       0.41936966      -0.59842216       0.23075409
O        8.05674448       9.83827583       6.64556892  T       0.72325040      -0.64450605      -0.16768436
O        4.09784766       7.05657232       6.82880352  T       0.43772787      -0.61342666      -0.14158331
O        4.08585526       9.62640439      11.07651413  T      -0.45994469      -0.35962665      -0.69238254
O        2.98675802       8.27542196       8.89321197  T      -0.67048522      -0.23770783      -0.09902193
O        1.54675963       6.56839355       7.13459489  T       0.18162594      -0.42205269       0.05704107
O        3.19398723       5.66974914       9.13877177  T      -1.00573339       0.01672399       0.03631557
O        0.24566033       6.24029861       9.55288320  T       1.28592235      -0.42730036       0.16937438
O        2.26324910       7.33088720      11.18824424  T      -1.03143299      -0.54377001       0.08160264
O        4.86881972       7.25625036      10.39256482  T      -0.68490650      -0.65803167      -0.02507559
O        8.30739581      -0.08900702       9.21781297  T      -0.76811768      -1.14726174       0.04140643
O        7.53015497       7.15098657      11.32218755  T      -0.00951475       0.00497430       0.16380834
O        6.24637642       5.58249082       6.82283949  T       0.11493779       0.50365890      -0.04167743
O        5.85177075       9.86462962       7.97355746  T      -0.49060552       0.21861450       0.37411680
O        8.92635637       6.21577977       7.10297523  T      -0.31845473       1.03031286      -0.29666349
O        7.13502513       7.66979976       8.23698851  T      -0.14394202       0.37131585       0.36316572
O        3.55000000       4.18000000       1.53000000  F       0.00000000       0.00000000       0.00000000
O        1.14000000       4.89000000       1.35000000  F       0.00000000       0.00000000       0.00000000
O        9.29000000       1.31000000       1.44000000  F       0.00000000       0.00000000       0.00000000
O        6.84000000       0.20000000       1.30000000  F       0.00000000       0.00000000       0.00000000
O        3.95000000       9.60000000       1.25000000  F       0.00000000       0.00000000       0.00000000
O        2.28000000       7.42000000       1.08000000  F       0.00000000       0.00000000       0.00000000
O        7.52000000       7.21000000       1.37000000  F       0.00000000       0.00000000       0.00000000
Si       2.03534910       3.97876495      12.37806024  T      -0.57650322      -0.67201605      -0.85677300
Si       2.89091628       3.65280754      14.99973297  T      -0.46103105      -0.54843804       0.57941503
Si       0.83762516       1.08543875      11.55556941  T       0.15499612       0.11738436      -1.80360678
Si       8.38182569       1.01004628      15.70178472  T       0.70636948       0.66083559       1.03239457
Si       5.54143129       2.11150408      14.48972731  T      -1.09199708      -0.26835705       0.79369675
Si       4.74162590       5.75571462      16.13144816  T      -0.47025727      -0.57126591       0.36340867
Si       0.05142210       9.20582324      13.83934653  T       0.54874968       0.01565542       0.68432042
Si       6.23579649       5.17162259      13.62197221  T       0.74000862       0.10865746      -0.47161946
Si       5.31549424       9.88285502      12.19525019  T      -0.71177995      -0.43849920       0.14330853
Si       8.45549727       7.01402395      12.65724297  T       1.56123036       0.16226861       0.67905603
Si       3.13822112       4.25576579      20.21036996  T      -1.34912770      -0.41255503      -1.01371553
Si       2.11856306       1.53601976      19.06059512  T       0.78492795      -0.10743473      -0.15478399
Si       0.50028942       2.76665303      16.93072059  T      -0.58408447       0.51794564       1.47611348
Si       4.97101535       1.56076007      17.61455924  T      -0.08324693      -0.19488301      -0.00750019
Si       6.00636609       3.71739024      19.55444709  T       1.85368654      -0.56828400      -1.39586889
Si       7.69106183       1.22443178      20.62275421  T       0.19150667      -0.26757537       1.00583636
Si       2.56829835       8.80721840      20.44879716  T      -0.17174859       0.47095085      -0.00250695
Si       2.86300811       6.74713810      18.14770007  T       0.79942616       0.08779730       0.44342103
Si       1.10719552       6.13556946      21.28054256  T      -0.16551278      -0.12958555      -1.68650941
Si       0.13728331       5.58688706      18.32910824  T      -0.80556304       1.21870250       0.31444231
Si       6.05854182       9.31529040      22.43503359  T      -1.00861166      -0.63991164       0.19880218
Si       7.06679601       6.24610746      18.19547097  T       0.36286625       0.31454284       0.13777662
Si       7.17770459       9.47932678      18.12149270  T      -0.33532343       0.47987805       0.57872270
Si       2.10000000       3.98000000       2.32000000  F       0.00000000       0.00000000       0.00000000
Si       2.84763470       3.70778298       5.00293243  T      -0.02586503       0.62149407       0.52972748
Si       0.89000000       1.15000000       1.77000000  F       0.00000000       0.00000000       0.00000000
Si       8.44458154       1.03531510       5.64353756  T       0.78307757       0.27019926       0.65196003
Si       5.51237133       2.02357775       4.44156003  T      -0.62695784       0.58601195       0.28276162
Si       4.81307358       5.82529121       6.13277646  T       0.15297313      -0.38330882      -1.08775202
Si       0.15977467       9.22172260       3.93808777  T       2.47373680      -0.59239778      -0.91153135
Si       6.22040127       5.09323234       3.62788340  T       0.69010855       0.11663131       0.28803666
Si       5.42000000       9.77000000       2.06000000  F       0.00000000       0.00000000       0.00000000
Si       8.42405850       7.04502473       2.75142842  T      -0.48171270       1.21024066       0.24216859
Si       3.62505734       4.29137259       9.91300735  T      -0.29455494      -0.08430443       1.17370818
Si       2.26600225       1.63649156       8.94145400  T       1.01278303       0.35319649      -0.24890003
Si       0.54602885       2.77702813       6.99339285  T       0.19165113      -0.56830186      -0.80441164
Si       5.12843290       1.22000699       7.48471907  T       0.69975490       0.37199139       0.18171342
Si       6.55533008       3.46919098       9.11737759  T      -0.63502948       0.50269065       0.33032419
Si       7.85023525       0.99332414      10.45964934  T      -0.20598737       0.05932688      -0.20339670
Si       3.54168619       8.19477660      10.44063773  T       0.14145124      -0.06012666       1.16267434
Si       2.94261855       6.87546177       8.02997854  T      -0.66793783      -0.10410008      -0.59710700
Si       0.94132607       6.39130213      10.99898742  T       1.13826060      -0.04230121       0.57995930
Si       0.30333555       5.79299589       7.96264439  T       0.16430480       0.17029226      -0.76022572
Si       5.90607941       7.05193219      11.68716369  T       0.11370650       0.06080644       1.52250666
Si       7.45002917       6.11006177       7.77292241  T       0.87578651       0.31965985      -0.37931333
Si       7.35195519       9.29544174       8.03148032  T       0.66472797      -0.19294263       0.08920226
Si       7.93000000       1.02000000       0.50000000  F       0.00000000       0.00000000       0.00000000
Si       0.91000000       6.44000000       0.98000000  F       0.00000000       0.00000000       0.00000000
Si       5.91000000       7.08000000       1.49000000  F       0.00000000       0.00000000       0.00000000
C        4.98342977       4.99336754      21.70474945  T       0.69138516      -0.30321740     -11.86576820
F        5.79759513       6.04896391      21.67307023  T      -0.06409530      -0.38275452     -21.35044170
F        5.85675304       3.94728490      21.79068992  T       3.17876775       0.45338850     -15.59567040
153
Lattice="10.0 0.0 0.0 0.0 10.0 0.0 0.0 0.0 43.74" Properties=species:S:1:pos:R:3:move_mask:L:1:momenta:R:3 etch=trj_CF2_30eV_case1 idx=0 index=0 source=trj_CF2_30eV_case1/0000/OUTCAR converged=T time_fs=48.0 pbc="T T T"
O        2.14903389       4.58811944      13.88187776  T      -0.49209891      -0.60513671      -0.03989458
O        1.40544850       2.47428292      12.24145395  T      -0.54060802      -0.06258219      -0.55252539
O        3.79134280       2.61762743      14.25858273  T      -0.02494208       0.99500297      -0.41696831
O        3.74347190       4.50178358      16.14684156  T       0.43607888       0.00285333       0.17840446
O        1.70418492       2.85746081      15.89081052  T      -0.94129703      -0.25260148      -0.01205547
O        5.07010474       1.73175168      16.08451910  T       0.69931057       0.10864987       0.15518005
O        5.05970706       0.98707831      13.31846699  T       0.93947329      -0.09687018      -0.02408814
O        6.14264830       3.60199611      14.01970616  T       0.04977472       0.01111505      -0.40501524
O        7.18697609       1.52031314      14.75858785  T       0.28263957       0.33535650      -0.15854492
O        8.95538124       2.38676227      16.46967135  T       0.73218725       0.66360251       0.31509352
O        9.68281575       0.46512386      14.85404883  T       0.66555468      -0.20332914       0.08437851
O        0.88423176       9.80875114      12.58782917  T      -0.33158764       0.46545533      -0.31041321
O        1.05807060       8.12208866      14.72049118  T      -1.14150777      -0.08494707       0.10243964
O       10.00903375       6.84094875      12.29139071  T      -0.01711096      -0.85392102      -0.51265470
O        5.34475581       6.00886450      14.67973028  T      -0.43389387      -0.87712726       0.44213121
O        5.66480284       5.48056420      12.13396256  T       0.26900307       0.27562907       0.84096750
O        7.73935424       5.87056257      13.56782143  T       0.47774421      -0.01329923      -0.41549025
O        5.59593697       8.33555707      12.82354806  T       0.07105342       0.94510822       0.68881014
O        8.62432512       8.41243271      13.56092113  T       0.14688143       0.92239546      -0.69099522
O        2.39794569       5.09990199      21.38075891  T      -0.77915444       0.00451079      -0.95384531
O        0.24236799       6.06699058      22.62787102  T      -0.39709682      -0.89040501       0.19808067
O        1.91777271       0.27140321      20.08305005  T       0.37582003       0.30278295      -0.16469006
O        2.43533905       2.89884988      19.98108354  T       1.23554222       0.22293167       0.30725926
O        3.46500042       1.33295832      18.15608751  T      -0.76930131       0.45594887      -0.23513729
O        0.81904031       1.61558062      18.10146752  T       0.71158439       0.13488430       0.58057872
O        0.36114504       4.12594931      17.81419228  T      -0.15611746       0.47987084      -0.21377611
O        9.07556753       1.43222004      21.44252593  T       0.12698815       0.56720422       0.03792448
O        5.52899485       3.00889095      18.19504045  T       0.77570580      -0.50317489      -0.07696254
O        4.66369361       3.90666825      20.56175831  T      -2.94861577       0.04171433      -4.93101172
O        7.07667778       2.74653607      20.35031755  T       0.10740098      -0.41359083      -0.80513908
O        6.53238394       0.52139951      21.51132364  T       0.02918573       0.12127274       0.04219048
O        6.57585734       5.20770072      19.39871224  T      -0.22470301      -0.05163703       0.29773221
O        7.95794735       9.85779412      16.72913605  T       0.14212290      -0.24469933       0.01409700
O        3.79694751       6.90921211      16.84562519  T      -0.58264814      -0.55831981       0.29200078
O        3.84392689       9.38287818      21.33001353  T       0.35212809       0.27268740      -0.08350001
O        3.22261484       8.01667988      19.14518290  T      -1.04324073      -0.07813317       0.22845813
O        1.26218140       6.59496408      17.83061031  T      -0.41337564      -0.13269677       0.32780127
O        3.23504225       5.29895376      18.96804337  T       0.33111348       0.62968263       0.32326839
O        0.17424064       5.66266073      20.03121102  T       0.44227766       1.05696000       0.28288000
O        1.55646570       7.72153073      21.20313530  T       0.86785002      -0.27851166       0.01876456
O        4.66285147       8.35012103      22.04485889  T       0.72557279       0.80916526       0.53289347
O        8.04569058       0.23015253      19.34421975  T      -0.63122103       0.42492057      -0.03823722
O        6.80530404       8.74144652      23.64179494  T      -1.06487704      -0.35362122      -0.75956640
O        6.16546652       5.78146857      16.96172020  T      -0.37258280      -0.74516552       0.72109885
O        5.71897635       0.21488530      18.19355476  T       0.13952531       0.27506955      -0.53324293
O        8.65017004       6.09861940      17.90223625  T      -0.30567033       0.21114824      -0.33841376
O        6.89757512       7.90132452      18.43126935  T      -0.49978995       0.21546574       0.38851912
O        2.00195967       4.49096627       3.82142067  T      -0.83557778      -1.66515458      -0.66582554
O        1.62965729       2.46556275       1.95431478  T       1.35832231      -0.18304314      -2.33760263
O        3.80357932       2.71934013       4.17310579  T      -0.40489157       0.37099567       0.10976885
O        3.76476455       4.48321403       6.06608467  T      -0.47585382      -0.24588992      -0.54550099
O        1.61450491       2.98886366       5.80747289  T       0.21808211       0.27356490       0.06179420
O        4.95292355       1.35759148       5.85598516  T       0.23548169       0.23943830       0.23935016
O        5.29217126       0.95413956       3.16281451  T       1.34346551       0.29522887       0.26630022
O        6.18677620       3.53531231       3.94924883  T      -0.14351471      -0.46273629      -1.32883668
O        7.20782653       1.62777345       4.87348580  T       0.41656928       0.41830085      -0.06792721
O        9.09932499       2.34921106       6.50574502  T       0.27635817       0.56862285       1.31099473
O        9.67064917       0.65582388       4.55263695  T       0.21781881       0.19018138      -0.61415247
O        1.05262081       9.72766887       2.52206370  T       0.36226300       0.67442211       0.59067360
O        1.08608466       8.07001036       4.67479858  T      -1.32826893       0.65139028      -0.19906616
O        9.87000000       6.98000000       2.02000000  F       0.00000000       0.00000000       0.00000000
O        5.36341216       6.03185573       4.62651211  T      -0.13410308       0.25297250      -0.09370507
O        5.59000000       5.63000000       2.17000000  F       0.00000000       0.00000000       0.00000000
O        7.76392750       5.80480497       3.55317301  T       0.67616367      -0.35718286      -0.31896696
O        5.53312039       8.21782762       2.62210107  T      -0.48809677       0.08101395       1.59712258
O        8.68036795       8.45885616       3.56296397  T       0.30331569       0.21566619      -0.10924205
O        3.46268989       4.11761301      11.56612770  T      -0.58513643      -0.11048383      -0.14568082
O        1.08202679       4.84675181      11.42498929  T      -0.50272973      -0.16212543       0.00567636
O        1.75598808       0.79330864      10.27422322  T       0.02519429      -1.07432769      -0.24205960
O        2.63307521       3.21887543       9.22233733  T      -0.93829954       0.49395888      -0.51830459
O        3.64278509       1.12007056       8.29548350  T       0.65005358       0.71909354      -0.08559480
O        0.94446745       1.56997941       8.02636246  T       0.56279606      -0.60353551       0.63527361
O        0.46318250       4.18533115       7.81701281  T       0.00442945       0.65693449       0.17364605
O        9.22861078       1.25435745      11.21345210  T      -0.06829840      -0.69859454      -0.35177111
O        6.03757899       2.54072965       7.89047806  T      -0.12891565      -0.25660088       0.47842762
O        5.23716612       4.07380909       9.84057824  T      -0.92732511      -0.17392090      -0.10678431
O        7.46504297       2.48607877       9.99635472  T       0.21397438       0.14324621       0.07944970
O        6.61269010       0.27503973      11.32575197  T      -0.28191700       1.07220054      -0.03385122
O        7.46857621       4.75864720       8.73992269  T       0.47864579      -0.51463216       0.27391023
O        8.06127920       9.83396277       6.64458587  T       0.75371187      -0.75922314      -0.15262307
O        4.10017293       7.05291739       6.82832091  T       0.31866196      -0.57684223      -0.01527015
O        4.08284275       9.62405879      11.07241549  T      -0.51946268      -0.40248181      -0.64029763
O        2.98263740       8.27389673       8.89252748  T      -0.67076791      -0.25902003      -0.12154898
O        1.54797584       6.56576289       7.13559456  T       0.21399038      -0.43426490       0.26659538
O        3.18779706       5.66992858       9.13878639  T      -1.00963327       0.04020542      -0.03046744
O        0.25347230       6.23790499       9.55349359  T       1.25799174      -0.35214784       0.02799199
O        2.25722503       7.32786949      11.18860555  T      -0.92558216      -0.43571962       0.03660324
O        4.86508973       7.25210944      10.39277898  T      -0.52851931      -0.69108219       0.09735080
O        8.30227386      -0.09579569       9.21835351  T      -0.89849025      -1.06196537       0.13695834
O        7.52984885       7.15112605      11.32315075  T      -0.08996589       0.04055563       0.15174422
O        6.24706187       5.58553816       6.82268165  T       0.10832539       0.48830615      -0.00997299
O        5.84859299       9.86596744       7.97595858  T      -0.54071647       0.21541703       0.40778404
O        8.92472622       6.22203961       7.10140165  T      -0.21030925       1.00827808      -0.21611309
O        7.13424185       7.67200190       8.23916832  T      -0.11111058       0.34364607       0.34646424
O        3.55000000       4.18000000       1.53000000  F       0.00000000       0.00000000       0.00000000
O        1.14000000       4.89000000       1.35000000  F       0.00000000       0.00000000       0.00000000
O        9.29000000       1.31000000       1.44000000  F       0.00000000       0.00000000       0.00000000
O        6.84000000       0.20000000       1.30000000  F       0.00000000       0.00000000       0.00000000
O        3.95000000       9.60000000       1.25000000  F       0.00000000       0.00000000       0.00000000
O        2.28000000       7.42000000       1.08000000  F       0.00000000       0.00000000       0.00000000
O        7.52000000       7.21000000       1.37000000  F       0.00000000       0.00000000       0.00000000
Si       2.03343378       3.97624543      12.37486313  T      -0.52008830      -0.76764102      -0.96906869
Si       2.88917013       3.65080934      15.00206056  T      -0.53921642      -0.59202736       0.75170521
Si       0.83800885       1.08601903      11.54947075  T       0.06305699       0.21304953      -1.68157287
Si       8.38432515       1.01266555      15.70518114  T       0.72273987       0.83643301       0.90747693
Si       5.53751728       2.11042258      14.49249910  T      -1.14400222      -0.34808992       0.78894213
Si       4.74008648       5.75389420      16.13285635  T      -0.40852266      -0.46886515       0.44241215
Si       0.05331718       9.20582018      13.84201641  T       0.53519927      -0.01572425       0.83914501
Si       6.23844841       5.17179528      13.62038996  T       0.77650964      -0.01089209      -0.42911198
Si       5.31299413       9.88116185      12.19578705  T      -0.71642641      -0.52746521       0.16179798
Si       8.46101233       7.01475608      12.65980622  T       1.58973323       0.25732599       0.78418316
Si       3.13309432       4.25479109      20.20662747  T      -1.59240847      -0.13665525      -1.12871527
Si       2.12144529       1.53559985      19.06007452  T       0.86209952      -0.13109111      -0.14094550
Si       0.49798862       2.76829783      16.93602269  T      -0.72893914       0.42236746       1.55477762
Si       4.97068140       1.55996007      17.61476436  T      -0.10864145      -0.26218205       0.12510934
Si       6.01324284       3.71511255      19.54947850  T       2.08135988      -0.73646635      -1.44761446
Si       7.69189229       1.22360150      20.62608540  T       0.28389873      -0.20680829       0.89803377
Si       2.56758887       8.80873140      20.44865898  T      -0.23307999       0.39424655      -0.07505141
Si       2.86585776       6.74733555      18.14945253  T       0.82543629       0.02427046       0.55881253
Si       1.10657585       6.13511481      21.27465673  T      -0.18915669      -0.12807515      -1.67188829
Si       0.13419982       5.59126806      18.33061866  T      -0.95691496       1.28376675       0.54852431
Si       6.05495099       9.31276423      22.43584281  T      -1.04439077      -0.79950307       0.25918270
Si       7.06812593       6.24740489      18.19594857  T       0.39474428       0.42720104       0.13525417
Si       7.17657270       9.48114604      18.12360908  T      -0.31057839       0.56001283       0.63004494
Si       2.10000000       3.98000000       2.32000000  F       0.00000000       0.00000000       0.00000000
Si       2.84749098       3.70965516       5.00483375  T      -0.05876197       0.44703788       0.55428026
Si       0.89000000       1.15000000       1.77000000  F       0.00000000       0.00000000       0.00000000
Si       8.44745741       1.03660721       5.64586373  T       0.86137071       0.46790333       0.67675882
Si       5.51018810       2.02561061       4.44243811  T      -0.62075058       0.57600457       0.21890311
Si       4.81365022       5.82362363       6.12878526  T       0.17642724      -0.57004942      -1.19165211
Si       0.16840230       9.21940090       3.93487534  T       2.45506848      -0.73129517      -0.92394066
Si       6.22287747       5.09379704       3.62883578  T       0.72586542       0.20556845       0.25557599
Si       5.42000000       9.77000000       2.06000000  F       0.00000000       0.00000000       0.00000000
Si       8.42244195       7.04943370       2.75230214  T      -0.44122974       1.30970375       0.25722172
Si       3.62413395       4.29099026       9.91734057  T      -0.23718590      -0.13297542       1.29987834
Si       2.26961400       1.63777300       8.94075351  T       1.05179312       0.37869662      -0.15011716
Si       0.54669436       2.77515521       6.99065300  T       0.19267892      -0.50075370      -0.75628843
Si       5.13061450       1.22148834       7.48529687  T       0.54724349       0.47441247       0.14869329
Si       6.55304399       3.47104561       9.11847113  T      -0.67123613       0.55629985       0.29581053
Si       7.84946464       0.99323317      10.45889564  T      -0.23540067      -0.11151836      -0.22803914
Si       3.54196874       8.19456875      10.44476723  T       0.01675463      -0.06121417       1.19408072
Si       2.94025385       6.87513108       8.02770566  T      -0.68279641      -0.08511074      -0.70109061
Si       0.94530402       6.39114162      11.00130941  T       1.13290923      -0.05227716       0.74495867
Si       0.30386810       5.79356948       7.95976599  T       0.13996656       0.15878803      -0.88311159
Si       5.90633886       7.05231875      11.69239073  T       0.03477890       0.16145730       1.46418728
Si       7.45299318       6.11115339       7.77163534  T       0.81656772       0.30431697      -0.35457393
Si       7.35444203       9.29465700       8.03176699  T       0.75278864      -0.25515436       0.07292187
Si       7.93000000       1.02000000       0.50000000  F       0.00000000       0.00000000       0.00000000
Si       0.91000000       6.44000000       0.98000000  F       0.00000000       0.00000000       0.00000000
Si       5.91000000       7.08000000       1.49000000  F       0.00000000       0.00000000       0.00000000
C        4.98974127       4.99049975      21.60887013  T       0.85012720      -0.39979251     -11.57490633
F        5.79711677       6.04707135      21.56242980  T      -0.12249472      -0.34544079     -21.44784350
F        5.87509581       3.94990877      21.71271898  T       3.92805674       0.56506265     -14.55949225
153
Lattice="10.0 0.0 0.0 0.0 10.0 0.0 0.0 0.0 43.74" Properties=species:S:1:pos:R:3:move_mask:L:1:momenta:R:3 etch=trj_CF2_30eV_case1 idx=0 index=0 source=trj_CF2_30eV_case1/0000/OUTCAR converged=T time_fs=49.0 pbc="T T T"
O        2.14594880       4.58439510      13.88166478  T      -0.51251377      -0.60876871      -0.02991154
O        1.40205106       2.47369639      12.23816450  T      -0.56564730      -0.12838064      -0.51921527
O        3.79152616       2.62372233      14.25591446  T       0.08592007       0.98814947      -0.45215164
O        3.74598005       4.50153700      16.14782000  T       0.37876794      -0.08560057       0.14028028
O        1.69849320       2.85608182      15.89055374  T      -0.91209911      -0.19641655      -0.07108621
O        5.07453093       1.73243809      16.08482725  T       0.74119852       0.11451286      -0.05310618
O        5.06568222       0.98631595      13.31829137  T       1.00538823      -0.15075515      -0.03216587
O        6.14300275       3.60222951      14.01715269  T       0.06546053       0.06337154      -0.42622153
O        7.18852282       1.52225786      14.75757218  T       0.22259040       0.29775241      -0.17070757
O        8.96016634       2.39075547      16.47155577  T       0.82333943       0.63542181       0.29806063
O        9.68691682       0.46366405      14.85442487  T       0.66835249      -0.27003005       0.04067683
O        0.88223331       9.81162311      12.58586398  T      -0.31975980       0.46907417      -0.32816642
O        1.05086892       8.12177680      14.72095619  T      -1.20307681      -0.01784462       0.04998465
O       10.00898603       6.83570021      12.28785564  T       0.00142529      -0.85476664      -0.63689461
O        5.34189182       6.00367430      14.68226430  T      -0.49730910      -0.81330456       0.38153618
O        5.66638405       5.48263350      12.13915920  T       0.24458611       0.39839411       0.84935544
O        7.74237389       5.87031624      13.56545093  T       0.50546788      -0.06716618      -0.35566175
O        5.59638239       8.34102995      12.82731831  T       0.07390962       0.83556360       0.53917945
O        8.62527040       8.41814939      13.55659826  T       0.16082350       0.93861678      -0.71703343
O        2.39312882       5.09997703      21.37503266  T      -0.78873112       0.01891919      -0.91036335
O        0.23981479       6.06146477      22.62930996  T      -0.43234247      -0.90929817       0.26707993
O        1.92009374       0.27304222      20.08202864  T       0.38009156       0.23055859      -0.16724794
O        2.44239495       2.89929156      19.98265141  T       1.05955131      -0.08478947       0.20207656
O        3.46010645       1.33580907      18.15471828  T      -0.81988912       0.47234548      -0.21321850
O        0.82357222       1.61652571      18.10504653  T       0.76263913       0.17358840       0.58439590
O        0.36027191       4.12876250      17.81277893  T      -0.12886019       0.43937296      -0.24435662
O        9.07646738       1.43573099      21.44279553  T       0.16618333       0.57643166       0.05002784
O        5.53372389       3.00582510      18.19474229  T       0.76417026      -0.49637692      -0.02183343
O        4.64358537       3.90713830      20.52907534  T      -3.58946649       0.11107119      -5.70572943
O        7.07748084       2.74362600      20.34485973  T       0.15881252      -0.53956673      -0.97531835
O        6.53211651       0.52192113      21.51169775  T      -0.11701904       0.04704611       0.08114825
O        6.57465196       5.20759057      19.40034096  T      -0.16537715       0.01439570       0.22739670
O        7.95862120       9.85585975      16.72964765  T       0.07767773      -0.38407439       0.15217927
O        3.79341883       6.90585597      16.84734958  T      -0.56557739      -0.53412224       0.26854348
O        3.84612302       9.38466731      21.32968081  T       0.36232969       0.30990281      -0.02581587
O        3.21598507       8.01614716      19.14652395  T      -1.11498978      -0.09471308       0.20786363
O        1.26005518       6.59452611      17.83240089  T      -0.27687247      -0.00909562       0.25567377
O        3.23708486       5.30312436      18.96967352  T       0.33364225       0.72885163       0.20704427
O        0.17696859       5.66909439      20.03247468  T       0.44272508       1.03730527       0.12506234
O        1.56206625       7.72008141      21.20302442  T       0.95529890      -0.19415883      -0.05417013
O        4.66757000       8.35552437      22.04806414  T       0.80847924       0.94872130       0.51027742
O        8.04162807       0.23281179      19.34405855  T      -0.69128494       0.44085869      -0.01399382
O        6.79876074       8.73930046      23.63719145  T      -1.06339695      -0.34753632      -0.73531060
O        6.16299940       5.77673812      16.96611147  T      -0.43058843      -0.79492705       0.70973952
O        5.71982775       0.21670951      18.19019789  T       0.13654615       0.31858851      -0.55966529
O        8.64838070       6.09982705      17.90015070  T      -0.27663187       0.18240082      -0.34068425
O        6.89453518       7.90237272      18.43366974  T      -0.49020321       0.12590424       0.39328875
O        1.99669738       4.48092298       3.81744717  T      -0.87872041      -1.60492546      -0.62445130
O        1.63819673       2.46451965       1.94004934  T       1.42264129      -0.15804144      -2.30978045
O        3.80135781       2.72148021       4.17371399  T      -0.31764258       0.32513619       0.08805380
O        3.76222073       4.48242004       6.06308070  T      -0.35065932      -0.01087650      -0.43126866
O        1.61607020       2.99049806       5.80777455  T       0.29079802       0.25822778       0.03713920
O        4.95428174       1.35898273       5.85786806  T       0.20697507       0.21426645       0.37247164
O        5.30053376       0.95586856       3.16456440  T       1.37953222       0.26711935       0.30259146
O        6.18584817       3.53262460       3.94098871  T      -0.15865363      -0.41086796      -1.36142906
O        7.20998990       1.63025957       4.87281967  T       0.28936658       0.39134994      -0.14735408
O        9.10055898       2.35230816       6.51342848  T       0.12256817       0.43839527       1.18999854
O        9.67200209       0.65676650       4.54901710  T       0.22268180       0.11658898      -0.56432103
O        1.05485333       9.73207380       2.52571445  T       0.36605947       0.76022937       0.59668031
O        1.07776084       8.07436113       4.67344404  T      -1.38012045       0.76263343      -0.24019569
O        9.87000000       6.98000000       2.02000000  F       0.00000000       0.00000000       0.00000000
O        5.36238733       6.03349929       4.62576434  T      -0.19846566       0.28160121      -0.15177141
O        5.59000000       5.63000000       2.17000000  F       0.00000000       0.00000000       0.00000000
O        7.76809427       5.80247882       3.55130944  T       0.68031245      -0.40006727      -0.28801318
O        5.53024784       8.21830565       2.63177206  T      -0.44660081       0.07367532       1.55014810
O        8.68227959       8.46015068       3.56230691  T       0.31922249       0.20673301      -0.10489459
O        3.45901813       4.11699897      11.56505506  T      -0.60976189      -0.08972468      -0.20246152
O        1.07888520       4.84573147      11.42492718  T      -0.51987430      -0.17127179      -0.02536414
O        1.75637557       0.78675277      10.27241166  T       0.10222104      -1.06009071      -0.34931337
O        2.62728689       3.22173713       9.21922193  T      -0.94553802       0.43915920      -0.49495834
O        3.64728502       1.12436863       8.29458533  T       0.81428060       0.68118119      -0.20613106
O        0.94803950       1.56635477       8.03006614  T       0.59881877      -0.57486439       0.56783066
O        0.46315492       4.18943537       7.81813218  T      -0.01326759       0.67522212       0.18864457
O        9.22860041       1.25003814      11.21154025  T       0.06446030      -0.70804714      -0.27165586
O        6.03660855       2.53901948       7.89325745  T      -0.18616347      -0.29854834       0.42735685
O        5.23134129       4.07269849       9.83977553  T      -0.96713270      -0.18810248      -0.15480464
O        7.46626944       2.48696875       9.99694407  T       0.18476203       0.14726493       0.11177667
O        6.61151350       0.28191757      11.32515296  T      -0.10426462       1.16657954      -0.15968979
O        7.47169179       4.75577685       8.74171432  T       0.53575557      -0.41826482       0.30813072
O        8.06599780       9.82896891       6.64369188  T       0.78332669      -0.86577368      -0.13909403
O        4.10175394       7.04948912       6.82861539  T       0.19614764      -0.54029307       0.11072323
O        4.07949738       9.62148362      11.06867739  T      -0.56821663      -0.43421890      -0.57490512
O        2.97853258       8.27224327       8.89174428  T      -0.66531879      -0.27937297      -0.13115484
O        1.54938026       6.56306758       7.13784527  T       0.24271400      -0.44312966       0.46407209
O        3.18160188       5.67022532       9.13841044  T      -1.00724893       0.05458210      -0.09059836
O        0.26110008       6.23597770       9.55321688  T       1.22625446      -0.27535118      -0.11862002
O        2.25193629       7.32557150      11.18870012  T      -0.79239351      -0.30969082      -0.00505123
O        4.86234144       7.24776514      10.39378280  T      -0.36614608      -0.72377940       0.23155112
O        8.29638396      -0.10202572       9.21951660  T      -1.01801803      -0.96557066       0.24390354
O        7.52905488       7.15148546      11.32407040  T      -0.16801567       0.07660824       0.14986069
O        6.24770601       5.58847936       6.82271388  T       0.10142287       0.46907984       0.02009409
O        5.84517160       9.86725694       7.97856148  T      -0.56981985       0.20295659       0.43977412
O        8.92379390       6.22815484       7.10031876  T      -0.09178207       0.98326506      -0.13700541
O        7.13366186       7.67399529       8.24123829  T      -0.07771802       0.30340843       0.32741882
O        3.55000000       4.18000000       1.53000000  F       0.00000000       0.00000000       0.00000000
O        1.14000000       4.89000000       1.35000000  F       0.00000000       0.00000000       0.00000000
O        9.29000000       1.31000000       1.44000000  F       0.00000000       0.00000000       0.00000000
O        6.84000000       0.20000000       1.30000000  F       0.00000000       0.00000000       0.00000000
O        3.95000000       9.60000000       1.25000000  F       0.00000000       0.00000000       0.00000000
O        2.28000000       7.42000000       1.08000000  F       0.00000000       0.00000000       0.00000000
O        7.52000000       7.21000000       1.37000000  F       0.00000000       0.00000000       0.00000000
Si       2.03170269       3.97340217      12.37129687  T      -0.47135308      -0.85700849      -1.06742900
Si       2.88713532       3.64867859      15.00498988  T      -0.62575351      -0.62442909       0.92283435
Si       0.83806022       1.08691970      11.54381807  T      -0.03437998       0.30017875      -1.54929198
Si       8.38687939       1.01589110      15.70812097  T       0.73741205       1.00653394       0.77201021
Si       5.53344184       2.10908182      14.49523120  T      -1.18428920      -0.41628437       0.77069871
Si       4.73877585       5.75243875      16.13454505  T      -0.33988978      -0.36297752       0.52343280
Si       0.05516758       9.20572361      13.84519501  T       0.52325288      -0.03763606       0.97448464
Si       6.24122795       5.17154247      13.61899383  T       0.81281866      -0.13403391      -0.36537252
Si       5.31049294       9.87917897      12.19636936  T      -0.71186935      -0.60403274       0.16877977
Si       8.46660038       7.01582840      12.66271264  T       1.60266334       0.35645905       0.87498289
Si       3.12701590       4.25485449      20.20246005  T      -1.89655066       0.17998286      -1.25705057
Si       2.12458527       1.53511107      19.05962090  T       0.93182150      -0.14716121      -0.11641925
Si       0.49520909       2.76960668      16.94158956  T      -0.85680271       0.32606421       1.62735519
Si       4.97024997       1.55893026      17.61543219  T      -0.13900402      -0.32569700       0.25570553
Si       6.02093828       3.71222740      19.54431069  T       2.32103043      -0.91496703      -1.50891005
Si       7.69304880       1.22298651      20.62903149  T       0.37732019      -0.14484177       0.78618309
Si       2.56667433       8.80997736      20.44828072  T      -0.28858158       0.31864824      -0.13978289
Si       2.86875531       6.74730376      18.15160804  T       0.82702609      -0.04298892       0.67335289
Si       1.10587082       6.13468802      21.26889122  T      -0.21425657      -0.11336533      -1.61752317
Si       0.13059737       5.59585079      18.33293749  T      -1.10125537       1.33406476       0.77559615
Si       6.05123916       9.30972951      22.43681810  T      -1.07756076      -0.93021540       0.29359092
Si       7.06954009       6.24909347      18.19641520  T       0.41095606       0.53781165       0.13103304
Si       7.17553915       9.48324001      18.12589194  T      -0.27938762       0.63645380       0.67412724
Si       2.10000000       3.98000000       2.32000000  F       0.00000000       0.00000000       0.00000000
Si       2.84721143       3.71090007       5.00679117  T      -0.10280385       0.26351867       0.56200619
Si       0.89000000       1.15000000       1.77000000  F       0.00000000       0.00000000       0.00000000
Si       8.45060421       1.03858110       5.64826243  T       0.93730579       0.65923988       0.69329405
Si       5.50803324       2.02760406       4.44309000  T      -0.61083594       0.56341105       0.15389911
Si       4.81430478       5.82130875       6.12445990  T       0.19723749      -0.75220997      -1.27817147
Si       0.17691941       9.21663165       3.93163339  T       2.41041396      -0.84784716      -0.92853577
Si       6.22547843       5.09466577       3.62966569  T       0.76139337       0.29037946       0.21811955
Si       5.42000000       9.77000000       2.06000000  F       0.00000000       0.00000000       0.00000000
Si       8.42097997       7.05417749       2.75322653  T      -0.39355897       1.40131427       0.27122357
Si       3.62337560       4.29045136       9.92207281  T      -0.20049098      -0.17348979       1.40122385
Si       2.27335677       1.63913453       8.94041121  T       1.08827900       0.39871298      -0.04468977
Si       0.54739737       2.77353615       6.98813664  T       0.21262493      -0.42336340      -0.67709285
Si       5.13225930       1.22331969       7.48576004  T       0.39332259       0.57152033       0.11646891
Si       6.55064116       3.47307256       9.11945119  T      -0.70162425       0.60103283       0.26532222
Si       7.84858642       0.99254552      10.45805202  T      -0.26683137      -0.28104085      -0.25468346
Si       3.54178590       8.19433286      10.44896253  T      -0.12392594      -0.07651484       1.20011585
Si       2.93785134       6.87486582       8.02508463  T      -0.68947550      -0.06667365      -0.79573958
Si       0.94922977       6.39092023      11.00417806  T       1.10841410      -0.07705911       0.89138468
Si       0.30431351       5.79411368       7.95648354  T       0.11462095       0.15374134      -0.99092108
Si       5.90632452       7.05306766      11.69739279  T      -0.04248788       0.26767412       1.39411198
Si       7.45572723       6.11218947       7.77045404  T       0.74472717       0.28806674      -0.31899149
Si       7.35719302       9.29366123       8.03197988  T       0.81536931      -0.31345754       0.04701981
Si       7.93000000       1.02000000       0.50000000  F       0.00000000       0.00000000       0.00000000
Si       0.91000000       6.44000000       0.98000000  F       0.00000000       0.00000000       0.00000000
Si       5.91000000       7.08000000       1.49000000  F       0.00000000       0.00000000       0.00000000
C        4.99731094       4.98681123      21.51553091  T       0.99957052      -0.50298757     -11.24393821
F        5.79631161       6.04542709      21.45130082  T      -0.19139361      -0.28630612     -21.53721456
F        5.89742494       3.95316328      21.64014715  T       4.71006946       0.69855033     -13.51688301
153
Lattice="10.0 0.0 0.0 0.0 10.0 0.0 0.0 0.0 43.74" Properties=species:S:1:pos:R:3:move_mask:L:1:momenta:R:3 etch=trj_CF2_30eV_case1 idx=0 index=0 source=trj_CF2_30eV_case1/0000/OUTCAR converged=T time_fs=50.0 pbc="T T T"
O        2.14274473       4.58063646      13.88150497  T      -0.53081540      -0.61646825      -0.02278813
O        1.39850872       2.47270943      12.23507694  T      -0.58762795      -0.19266376      -0.48668360
O        3.79240779       2.62973983      14.25303240  T       0.20195828       0.97025420      -0.48643355
O        3.74810323       4.50071117      16.14856517  T       0.31125102      -0.18513782       0.10272584
O        1.69298933       2.85504954      15.88994523  T      -0.88070600      -0.13993695      -0.12617024
O        5.07919109       1.73315190      16.08389444  T       0.77531165       0.11730868      -0.24711108
O        5.07203622       0.98523444      13.31808148  T       1.06289942      -0.20085838      -0.03531922
O        6.14344971       3.60275586      14.01447900  T       0.07990823       0.10605641      -0.44405810
O        7.18972458       1.52396529      14.75650808  T       0.17048863       0.25807167      -0.17434017
O        8.96545521       2.39454587      16.47332317  T       0.89578389       0.59744013       0.27681026
O        9.69100090       0.46183201      14.85457583  T       0.65988289      -0.32429509       0.01130477
O        0.88030162       9.81449948      12.58381727  T      -0.30988822       0.46671872      -0.33671138
O        1.04331339       8.12185586      14.72111570  T      -1.25655001       0.04212589       0.00312733
O       10.00904771       6.83046466      12.28359292  T       0.01811906      -0.84951758      -0.74929431
O        5.33866723       5.99888038      14.68439790  T      -0.55138147      -0.74814608       0.31194402
O        5.66779123       5.48545396      12.14436756  T       0.21240941       0.52001857       0.84508080
O        7.74555729       5.86973667      13.56346412  T       0.53128247      -0.12163773      -0.29066863
O        5.59684313       8.34579734      12.83016835  T       0.07604344       0.71574005       0.38935089
O        8.62629770       8.42394589      13.55211882  T       0.17362361       0.94847008      -0.74190493
O        2.38827281       5.10012397      21.36959160  T      -0.79202827       0.02795309      -0.86105569
O        0.23708268       6.05582913      22.63111303  T      -0.45536093      -0.92613620       0.31655000
O        1.92243795       0.27422887      20.08100397  T       0.38333877       0.15552805      -0.16585951
O        2.44831994       2.89776410      19.98355480  T       0.86821954      -0.41569553       0.09166414
O        3.45498697       1.33875409      18.15344384  T      -0.84233108       0.48654637      -0.20458423
O        0.82838288       1.61771742      18.10863354  T       0.80224824       0.21504568       0.58308701
O        0.35955654       4.13137607      17.81121606  T      -0.10482818       0.41532089      -0.26231135
O        9.07760803       1.43929729      21.44314145  T       0.20532605       0.58522130       0.06276762
O        5.53837170       3.00278496      18.19475156  T       0.74925688      -0.49522165       0.02252277
O        4.61981958       3.90801964      20.49184122  T      -4.12531954       0.17388953      -6.40560940
O        7.07867951       2.73985283      20.33831524  T       0.23707546      -0.69559258      -1.15915574
O        6.53094361       0.52196411      21.51233189  T      -0.26500754      -0.03397789       0.12625067
O        6.57385761       5.20785719      19.40143994  T      -0.08982968       0.06978167       0.12331799
O        7.95890705       9.85309689      16.73099491  T       0.01628763      -0.51364040       0.28519707
O        3.79001481       6.90266218      16.84891147  T      -0.54220487      -0.50543320       0.23926803
O        3.84836505       9.38668113      21.32968581  T       0.36683949       0.34587700       0.02628711
O        3.20893950       8.01552432      19.14773020  T      -1.17851723      -0.10742079       0.18461572
O        1.25879951       6.59485739      17.83375325  T      -0.13107096       0.11710612       0.18536499
O        3.23913178       5.30790139      18.97058023  T       0.33237323       0.82697519       0.08797654
O        0.17964042       5.67538292      20.03271279  T       0.42418292       1.00983167      -0.05037321
O        1.56818077       7.71913744      21.20247879  T       1.03484627      -0.11458495      -0.12259910
O        4.67274532       8.36174427      22.05111423  T       0.87387676       1.07461153       0.48222138
O        8.03721181       0.23556048      19.34405087  T      -0.74633937       0.45397414       0.01178447
O        6.79228053       8.73715730      23.63281576  T      -1.04416493      -0.35272942      -0.68511237
O        6.16018652       5.77171716      16.97044034  T      -0.48482555      -0.83968740       0.70105482
O        5.72064057       0.21878997      18.18668936  T       0.12709189       0.35828950      -0.58253972
O        8.64677805       6.10086124      17.89805533  T      -0.24509574       0.15475638      -0.34171191
O        6.89155852       7.90287239      18.43609795  T      -0.47919458       0.03737244       0.39763082
O        1.99116972       4.47127416       3.81379503  T      -0.92187464      -1.53689161      -0.56117836
O        1.64711645       2.46360693       1.92594915  T       1.48194307      -0.14094478      -2.28378552
O        3.79968930       2.72332329       4.17418489  T      -0.22499769       0.27447152       0.06523196
O        3.76047533       4.48309315       6.06080287  T      -0.21685319       0.23072087      -0.30986261
O        1.61806317       2.99202740       5.80793755  T       0.35700786       0.23920374       0.01697246
O        4.95546557       1.36022884       5.86053793  T       0.17874913       0.19240356       0.49474014
O        5.30909879       0.95741002       3.16651765  T       1.40937831       0.23404333       0.33241882
O        6.18482950       3.53028637       3.93253713  T      -0.17304651      -0.34902458      -1.39116475
O        7.21139439       1.63257583       4.87169516  T       0.16979687       0.36281584      -0.21702799
O        9.10080492       2.35457911       6.52034063  T      -0.04426511       0.30032542       1.06039040
O        9.67338093       0.65725347       4.54571467  T       0.22619754       0.04195195      -0.51078746
O        1.05712673       9.73700016       2.52937104  T       0.37559748       0.84412227       0.59259811
O        1.06917205       8.07933872       4.67187126  T      -1.41421264       0.85504987      -0.26981400
O        9.87000000       6.98000000       2.02000000  F       0.00000000       0.00000000       0.00000000
O        5.36098871       6.03530523       4.62462934  T      -0.25578330       0.30589929      -0.21979841
O        5.59000000       5.63000000       2.17000000  F       0.00000000       0.00000000       0.00000000
O        7.77227314       5.79989925       3.54963648  T       0.68029032      -0.43943226      -0.25704916
O        5.52764674       8.21872273       2.64110448  T      -0.39978222       0.06135943       1.48698428
O        8.68428488       8.46140214       3.56167481  T       0.33364514       0.20169472      -0.10114401
O        3.45521495       4.11650905      11.56365623  T      -0.62792729      -0.07012131      -0.25164636
O        1.07565174       4.84463767      11.42468365  T      -0.53256417      -0.18618307      -0.05338219
O        1.75725264       0.78030377      10.26992593  T       0.18412951      -1.03953092      -0.46074185
O        2.62148311       3.22427807       9.21627622  T      -0.94325536       0.38962961      -0.46299492
O        3.65276163       1.12843811       8.29296427  T       0.96698530       0.64494456      -0.32047876
O        0.95180053       1.56294383       8.03330118  T       0.62448730      -0.53408284       0.48281773
O        0.46302111       4.19357200       7.81930490  T      -0.03016818       0.66733294       0.19099094
O        9.22939250       1.24566731      11.21010759  T       0.19212293      -0.71538160      -0.19612380
O        6.03530535       2.53708614       7.89573112  T      -0.23701577      -0.32883466       0.37913646
O        5.22532227       4.07149686       9.83867636  T      -0.99043856      -0.20357917      -0.20334849
O        7.46730397       2.48789266       9.99771939  T       0.15153148       0.15419380       0.14001879
O        6.61137439       0.28934404      11.32381169  T       0.05495732       1.25040336      -0.27482817
O        7.47514836       4.75353071       8.74369095  T       0.58949768      -0.31177307       0.33436982
O        8.07089779       9.82335237       6.64287101  T       0.81294263      -0.96163007      -0.12914851
O        4.10258361       7.04627606       6.82967158  T       0.07474353      -0.50737402       0.23208074
O        4.07588754       9.61874991      11.06538166  T      -0.60551824      -0.45401153      -0.49623415
O        2.97447892       8.27046910       8.89094162  T      -0.65411098      -0.29825073      -0.12795590
O        1.55094694       6.56032790       7.14126478  T       0.26663334      -0.44873735       0.64687022
O        3.17544197       5.67057827       9.13768967  T      -0.99806630       0.05827978      -0.14253700
O        0.26852565       6.23452744       9.55203706  T       1.19243266      -0.19672262      -0.26522902
O        2.24754144       7.32409672      11.18855220  T      -0.63511211      -0.16807981      -0.04219137
O        4.86059473       7.24322792      10.39563853  T      -0.20326576      -0.75342184       0.37425045
O        8.28979664      -0.10763394       9.22136688  T      -1.12549031      -0.85974441       0.36044018
O        7.52779452       7.15206759      11.32501249  T      -0.24150762       0.11310665       0.15920596
O        6.24830612       5.59129066       6.82292377  T       0.09392660       0.44600119       0.04775513
O        5.84163708       9.86844311       7.98135454  T      -0.57759769       0.18193637       0.46963023
O        8.92361227       6.23410815       7.09971489  T       0.03353868       0.95558819      -0.06020915
O        7.13328858       7.67570467       8.24318470  T      -0.04378312       0.25129491       0.30626942
O        3.55000000       4.18000000       1.53000000  F       0.00000000       0.00000000       0.00000000
O        1.14000000       4.89000000       1.35000000  F       0.00000000       0.00000000       0.00000000
O        9.29000000       1.31000000       1.44000000  F       0.00000000       0.00000000       0.00000000
O        6.84000000       0.20000000       1.30000000  F       0.00000000       0.00000000       0.00000000
O        3.95000000       9.60000000       1.25000000  F       0.00000000       0.00000000       0.00000000
O        2.28000000       7.42000000       1.08000000  F       0.00000000       0.00000000       0.00000000
O        7.52000000       7.21000000       1.37000000  F       0.00000000       0.00000000       0.00000000
Si       2.03012723       3.97025822      12.36741411  T      -0.43124648      -0.93948323      -1.14968100
Si       2.88478620       3.64645226      15.00851037  T      -0.71849068      -0.64698476       1.08901756
Si       0.83776633       1.08810704      11.53864039  T      -0.13366900       0.37657316      -1.41070820
Si       8.38947981       1.01969449      15.71057395  T       0.74886515       1.16591156       0.62977552
Si       5.52924608       2.10752505      14.49787365  T      -1.21280438      -0.47135310       0.73738893
Si       4.73771361       5.75135642      16.13651753  T      -0.26701021      -0.25596801       0.60424315
Si       0.05697922       9.20556819      13.84880760  T       0.51303140      -0.04924074       1.08670007
Si       6.24413290       5.17085736      13.61785580  T       0.84806883      -0.25750033      -0.28189712
Si       5.30802746       9.87695092      12.19695239  T      -0.69559815      -0.66756506       0.16182357
Si       8.47220433       7.01725183      12.66590950  T       1.59859906       0.45772220       0.95006167
Si       3.11974118       4.25608747      20.19781802  T      -2.28012332       0.53076751      -1.40037143
Si       2.12795251       1.53457665      19.05927220  T       0.99161487      -0.15758564      -0.08091083
Si       0.49201975       2.77057924      16.94739848  T      -0.96233202       0.23031664       1.69306200
Si       4.96970367       1.55768923      17.61654259  T      -0.17429640      -0.38247416       0.37677929
Si       6.02948672       3.70870508      19.53891747  T       2.56834105      -1.10015109      -1.57603260
Si       7.69452938       1.22258702      20.63158382  T       0.46870729      -0.08412303       0.67352016
Si       2.56557908       8.81096390      20.44768978  T      -0.33600990       0.24629861      -0.19667069
Si       2.87161748       6.74703288      18.15415824  T       0.80547004      -0.11202505       0.78387233
Si       1.10507555       6.13433774      21.26338614  T      -0.24083373      -0.08410640      -1.52299746
Si       0.12651056       5.60058416      18.33602981  T      -1.23280520       1.37008383       0.98974593
Si       6.04741812       9.30629140      22.43786782  T      -1.10645072      -1.02985246       0.30185729
Si       7.07098300       6.25116239      18.19686129  T       0.41113854       0.64434040       0.12327469
Si       7.17462364       9.48559113      18.12831780  T      -0.24339171       0.70660834       0.71199686
Si       2.10000000       3.98000000       2.32000000  F       0.00000000       0.00000000       0.00000000
Si       2.84676446       3.71149302       5.00874825  T      -0.15359534       0.07502078       0.55447431
Si       0.89000000       1.15000000       1.77000000  F       0.00000000       0.00000000       0.00000000
Si       8.45400736       1.04120688       5.65070356  T       1.00733422       0.83989431       0.70091878
Si       5.50591886       2.02954852       4.44351616  T      -0.59767038       0.54795423       0.09027936
Si       4.81502543       5.81837408       6.11986709  T       0.21398224      -0.92328501      -1.34403636
Si       0.18523408       9.21349732       3.92838783  T       2.33922832      -0.93962635      -0.92621337
Si       6.22820280       5.09582321       3.63035672  T       0.79637205       0.37059205       0.17626602
Si       5.42000000       9.77000000       2.06000000  F       0.00000000       0.00000000       0.00000000
Si       8.41969546       7.05922504       2.75419864  T      -0.33998952       1.48303205       0.28457978
Si       3.62270748       4.28978747       9.92711137  T      -0.18574715      -0.20415709       1.47448976
Si       2.27722690       1.64055439       8.94044451  T       1.12512279       0.41178754       0.06403446
Si       0.54819893       2.77220299       6.98594748  T       0.24832172      -0.33756976      -0.56981688
Si       5.13336746       1.22547670       7.48611417  T       0.24094921       0.66003201       0.08662384
Si       6.54814348       3.47523922       9.12033071  T      -0.72530071       0.63608570       0.23818228
Si       7.84759994       0.99127358      10.45711271  T      -0.29663149      -0.44481599      -0.28263522
Si       3.54108902       8.19401613      10.45313361  T      -0.27635653      -0.10771384       1.18019165
Si       2.93544041       6.87466417       8.02215228  T      -0.68752988      -0.04872281      -0.87868521
Si       0.95303703       6.39058709      11.00751780  T       1.06538424      -0.11599267       1.01330226
Si       0.30466955       5.79465323       7.95285281  T       0.08897437       0.15629787      -1.08201467
Si       5.90604548       7.05419524      11.70213118  T      -0.11626795       0.37766114       1.31368020
Si       7.45819151       6.11316833       7.76941478  T       0.66282068       0.27173859      -0.27356009
Si       7.36011585       9.29246945       8.03208557  T       0.85085766      -0.36712049       0.01168510
Si       7.93000000       1.02000000       0.50000000  F       0.00000000       0.00000000       0.00000000
Si       0.91000000       6.44000000       0.98000000  F       0.00000000       0.00000000       0.00000000
Si       5.91000000       7.08000000       1.49000000  F       0.00000000       0.00000000       0.00000000
C        5.00607176       4.98227342      21.42507297  T       1.14167227      -0.60584265     -10.86982187
F        5.79511156       6.04414887      21.33975368  T      -0.27659307      -0.20375003     -21.60757084
F        5.92375507       3.95717667      21.57287657  T       5.46404631       0.85951019     -12.51736172
